ITEM: TIMESTEP
0
ITEM: NUMBER OF ATOMS
4190
ITEM: BOX BOUNDS xy xz yz pp pp pp
-1.2560000000000000e+01 3.8029600000000002e+01 0.0000000000000000e+00
-5.5799999999999997e+01 -5.2103999999999999e+00 0.0000000000000000e+00
-1.4190000000000000e+01 3.6399600000000000e+01 0.0000000000000000e+00
ITEM: ATOMS fx fy fz
-3.57594 -24.2337 -29.4215
-15.5344 -2.77545 -0.00141669
16.0123 3.33248 11.1153
-3.29094 19.7873 9.38009
-21.6833 -9.77462 -10.3461
44.496 -4.77626 17.5455
-20.7283 -1.92732 11.1411
-7.48522 13.4786 -11.551
-14.8432 -18.1101 28.1
-8.88427 -31.0752 -13.3565
7.15907 37.1748 -6.81225
31.4079 28.0411 -8.05754
25.8335 -12.1613 18.2423
-13.9828 -1.30727 -4.13932
-5.02343 1.49199 -9.47026
-19.9534 12.129 11.3913
7.6119 -11.9215 -5.23943
1.02465 -4.96293 7.19195
6.15381 1.00552 -4.43204
-1.93094 -3.99461 -6.28891
7.24157 -0.228533 4.01674
1.75106 -1.15556 -2.44259
4.9057 -3.43605 1.78802
-30.1802 11.3559 4.67494
17.3125 44.7567 54.7187
3.49023 -17.7743 -14.6514
-2.83911 -35.9873 7.58549
8.25997 -4.65605 -47.6836
-14.7522 -2.35318 -3.21868
4.41948 7.26701 9.4851
-26.4845 -5.64045 -0.185679
11.4532 8.06836 4.27261
-3.22145 -2.89675 -2.59292
12.165 7.73051 -9.55017
-12.5093 -10.6457 -2.61782
20.9179 0.0434751 20.59
-4.03672 -1.3738 6.08302
-6.19308 -0.357591 -13.2849
19.3854 42.4068 -10.9286
3.58078 -60.0936 8.82146
12.073 11.3445 -5.90765
6.33331 23.3013 17.3911
18.4273 0.0669149 -25.4599
3.17118 -1.56276 -2.17289
-8.91104 3.21942 9.45977
-39.6995 1.56752 14.1897
-3.44988 -9.19806 -8.76843
15.7778 0.308517 6.43478
-4.50476 1.97995 -9.15297
-8.77568 -0.0915942 -0.437019
17.3136 -13.1894 -15.9233
1.88312 5.15042 2.88524
0.440207 2.91746 3.71547
-14.1479 13.4187 4.82233
-21.732 28.7256 -7.4113
21.6751 -23.8809 19.3166
9.76904 -33.9014 -0.815661
7.44174 -22.0078 -20.8374
-0.0400563 2.86664 -6.37034
-0.366396 3.88871 4.22641
-13.8135 26.5448 -4.48446
5.12797 2.51508 -5.37271
0.408285 -1.21747 -4.37181
1.68865 7.53785 0.143959
-2.04836 2.02429 4.37916
11.9475 -10.5944 -10.3891
0.575329 6.50055 0.718891
-7.63991 1.08357 0.00706103
1.25088 -8.81665 7.00548
16.399 38.0111 -5.53054
-16.3904 -12.8665 -2.83078
-40.9412 -25.4714 38.1703
-7.71128 -29.2016 -29.3785
26.8076 15.0939 9.51577
7.38753 9.2567 -20.0234
7.00454 32.4326 -17.16
2.4145 -10.4061 6.54556
-10.3351 -9.26797 6.67688
-0.47316 -10.0207 0.774756
8.65075 14.6491 0.993439
18.5118 -31.4622 18.756
5.16874 -0.284028 -15.8646
-5.50615 3.42393 0.28829
-30.2181 8.91977 -5.47131
18.7162 11.7442 6.27267
-23.6202 -15.2339 8.52484
30.7946 34.5008 32.7686
-10.9675 16.1087 -33.745
-2.26872 -3.50887 -9.18399
3.42396 6.97504 -13.6132
-14.93 -32.9963 -10.1452
-2.89526 12.643 5.65885
14.0298 9.18568 -2.70858
-7.78988 -4.34692 10.3785
1.97316 2.09492 -0.635925
-20.6505 -20.8752 5.40523
3.50414 9.68914 -6.26839
6.65443 2.81851 2.06656
10.155 -19.6565 19.1495
-39.4882 44.9601 -2.00297
32.242 -41.4331 14.1713
4.10447 -0.563071 14.269
19.6037 -15.6246 0.0432135
-6.2021 -0.0362984 -2.66727
-18.4396 2.89502 -6.81256
-14.0181 37.6938 -8.43757
-2.37354 -14.72 -5.3731
10.4971 -2.83145 11.0451
9.56562 -4.0358 -8.0266
0.964489 -4.88708 -4.12892
7.83377 21.8418 2.87067
-2.06112 -0.679794 -5.55222
-9.22085 -7.15591 -5.48871
-1.17811 -26.3744 11.6414
-1.20137 8.45017 6.05512
-15.483 -17.7175 0.501479
40.1465 -5.48152 27.7614
29.0663 23.9396 -7.95203
-5.75545 -6.70223 3.3121
-3.883 -2.58433 -7.27837
-15.2403 -0.00822547 -14.6084
-8.77766 3.13523 2.01244
5.82776 0.740223 0.928585
-1.58971 6.11276 3.62342
-0.598482 -20.9266 -0.631485
22.1658 8.52049 -2.39899
15.8429 -3.18392 2.77184
-19.963 -8.42661 -2.74548
-5.82775 41.4527 7.36991
-33.2876 -36.4168 23.2087
5.73044 25.33 -2.40951
-33.2388 -12.5333 -15.2406
25.2913 -6.13384 -38.119
3.81286 4.5131 11.9305
-8.89132 3.73077 1.90247
20.8675 11.9222 -18.8596
-0.510403 3.054 20.2269
-13.1558 -4.55483 8.30681
6.97627 2.32192 6.44169
-0.478522 3.56201 2.03126
0.390672 -3.04869 -3.35789
-5.77667 -12.69 -2.82854
-4.97868 1.57899 -10.7747
-11.0764 8.24992 5.22629
17.8297 65.1934 33.4962
6.15094 -17.014 -19.2959
8.49056 -30.8906 -5.81598
4.09841 -7.94493 9.54871
15.0237 -23.5411 0.301587
-11.0667 8.91518 -32.5932
-18.7545 -1.68152 17.4101
8.27551 4.90036 -5.40188
2.05151 0.669605 5.78509
-10.4818 4.3963 -6.87336
10.6823 -3.11901 1.2171
-40.2441 1.19636 -24.9176
-7.75336 1.97202 -0.335212
-3.23011 -5.89196 8.46134
22.9076 3.37718 26.6935
20.0994 -28.4412 2.22566
1.19146 -0.661657 9.81458
-13.4984 -17.2264 -76.0719
-10.1704 11.9584 3.01038
-12.8915 0.883432 -10.043
7.77968 16.3208 -0.304743
-14.0225 10.5464 15.2561
-0.441173 4.3503 0.605588
9.62678 -7.49896 5.371
7.8978 -9.95271 -13.4555
-0.707781 -6.37274 -6.23665
3.75197 11.7245 6.00912
4.09272 -6.72508 -1.71227
-2.37819 2.78875 -2.34093
-3.34208 3.34132 3.92501
45.8758 -16.9786 45.2583
-27.653 45.7812 -28.2963
-10.1803 0.561144 75.459
12.9084 -32.0448 -25.2116
7.33972 23.7801 1.02448
7.43938 -16.4654 -3.6004
-1.2648 -0.986745 -28.0452
-6.73827 6.40076 5.01985
0.961395 -2.73343 6.63888
10.7888 9.93017 8.70134
-6.12619 3.04973 5.72223
30.0746 -2.12298 -0.829006
-14.5486 -10.6261 1.48249
-6.28725 6.50183 -12.1955
-20.1052 22.1709 21.223
40.24 -57.157 -23.3676
-5.28394 14.6371 9.92456
-47.1498 28.1516 24.6286
-14.3431 -27.019 -18.3777
1.04076 2.65028 4.94603
-3.92299 -1.74312 -3.50314
3.18612 5.25064 -27.6632
-5.67124 1.62952 2.99946
-2.88587 -10.8374 9.20175
1.11118 3.98866 5.57905
-0.0525661 -1.08992 -9.03808
-16.0048 12.3109 14.0315
-0.012415 -0.367947 -2.2966
4.69724 -1.11374 -7.30381
13.2276 -15.5653 10.7123
30.9787 -3.47511 64.3852
-9.40525 21.5216 -51.5677
28.9393 10.1003 -17.3428
-16.1026 3.78834 -10.3429
8.18993 10.052 6.33942
6.49957 -7.41346 1.86886
-9.53804 2.39577 22.0297
6.76062 -5.36216 9.7032
-10.8861 -1.90677 -6.43966
7.83917 0.121622 -11.7931
1.97603 3.7813 -7.27825
6.40579 -3.82448 11.2771
0.776535 1.67309 1.70191
-4.33536 11.5845 -11.6124
-5.06386 -6.88746 -7.17649
-9.76804 15.0451 7.7631
-11.7354 3.92168 -10.4694
24.2486 -43.3922 32.1371
-31.0719 39.1448 -32.1953
-3.44055 -14.8769 -2.01824
6.44968 -5.12076 2.12471
14.8756 9.32661 -29.2543
-7.69084 5.58423 8.80326
-6.13959 -5.96606 5.67719
-0.751451 0.834026 4.01741
-2.96135 -8.56726 -2.48585
23.5207 12.7722 -19.6025
-0.320685 -2.78476 6.84235
-0.395026 -2.8003 0.444546
-6.93281 -1.56339 5.85144
53.106 55.8 -27.8029
-23.9819 -51.0995 56.1354
-71.6559 -19.7689 -41.8249
12.3023 15.3169 -18.2345
18.3322 -8.54649 10.6186
1.45363 20.4887 16.0851
20.3654 3.07773 31.3299
0.399442 -3.12792 -0.963792
-4.14408 -3.40814 1.04207
2.8864 3.32856 0.252194
-4.29482 11.2127 1.13492
20.3588 -18.6311 -11.8663
-1.52596 5.08244 7.3506
-7.35478 2.2927 5.70906
-23.5374 -1.06521 -18.7137
36.8587 -38.857 57.8821
-5.61188 13.1194 -23.8542
-31.6814 -5.95116 -45.9081
6.17923 39.7053 -17.985
-2.48945 -16.3037 12.4424
-7.3909 -11.8473 6.88574
1.66919 35.3605 36.4829
-11.0539 -3.83981 -12.7221
1.73737 -5.40453 -7.48687
8.8451 -2.07775 -4.31705
4.58627 2.71682 5.32326
1.54142 5.79439 -17.4912
10.4192 9.37036 13.5304
3.37633 -0.533866 1.7224
-23.8846 -7.01043 8.00376
43.3949 -11.2975 6.66507
-50.5147 15.5782 -12.7708
49.9595 -7.75732 20.6554
5.20887 11.2528 -18.7864
-1.70279 2.87431 7.69777
-8.32305 -12.4129 10.6929
-68.5821 -6.96518 9.43716
15.9573 -2.28777 -0.395628
14.5097 5.50781 -1.15635
16.6255 -5.09179 13.7879
-2.32829 -14.819 10.418
0.278351 26.4897 -24.7928
1.08246 2.32327 15.0031
-3.39249 -3.62896 -2.46959
2.81471 -4.95296 -0.920944
23.5067 -3.4106 -0.137781
2.09932 9.94991 -6.90307
1.08634 -35.2729 -21.5846
-20.9592 26.2001 -10.7084
1.02165 -2.01535 3.36418
3.17772 -3.20327 10.2944
7.24655 52.7937 1.48282
3.07722 -6.51889 -0.0380306
-1.29568 -9.4628 -7.54411
8.72988 -0.570175 -0.983741
9.42199 -5.93259 11.6562
-18.2132 12.8012 -3.12205
8.63052 1.02937 1.78525
0.249655 0.368564 3.51834
-10.041 -18.2532 -28.3146
66.8042 -24.2332 10.1249
-38.883 6.65838 -20.4009
-13.9238 -7.84005 12.8699
-15.9628 -45.2232 -22.0808
-0.21079 10.5576 2.92807
3.891 0.863809 26.6838
-33.2695 8.31398 7.22608
1.45741 1.16748 4.4917
9.47556 -0.721995 0.560829
3.17907 -1.66061 -0.362679
2.58872 -8.37872 -0.417294
-27.8769 7.83445 -23.0623
3.62609 2.88026 10.1952
2.53629 1.60027 5.46301
5.02218 -7.33613 -0.232489
-53.5131 -12.424 -13.4364
52.5822 4.32037 18.1382
16.2678 16.5487 11.3412
4.16827 -9.03154 -21.9475
-2.5207 0.435387 10.4625
-15.7406 0.600026 17.3824
9.20007 2.65181 -29.0282
-8.11601 -7.68395 3.20257
1.01142 -8.66602 10.5221
0.519837 8.92141 0.1573
2.48195 -2.71354 10.3834
-6.65081 20.9606 -39.4225
2.4665 -9.14387 2.15687
-4.31933 3.41202 11.116
26.7118 -34.7748 32.2729
-1.04203 3.81936 -19.1086
4.09957 14.005 0.725827
-45.1867 24.3496 10.1345
10.8073 -2.08576 7.07035
-4.33876 17.9224 4.12401
-13.5763 -1.9224 16.5698
-0.349768 -3.50218 -4.4783
-0.70273 12.2025 8.23925
3.79917 2.9494 5.72431
20.7633 -2.36672 -12.3177
-0.103458 -0.714061 -2.32534
-3.94847 -29.0105 29.8771
-2.70961 -0.560541 -3.40923
9.67199 4.40995 -0.332919
33.7002 10.7037 -24.163
-23.1803 -27.301 9.60877
-8.54236 10.0413 -21.3854
34.2736 10.4215 -40.5471
2.26874 -30.4061 -22.212
0.73071 4.38294 2.54222
-3.89837 -5.98095 -6.93461
-17.4275 32.4991 19.7849
0.247544 -11.9208 -16.187
7.14854 -8.33995 5.88535
0.0854452 -4.87481 -0.168455
-10.9695 2.12957 -2.12482
31.3177 -6.63423 15.463
-5.24932 4.91508 -5.91878
-2.66345 -0.17171 -4.34674
-23.8151 5.18266 -1.27454
11.298 -26.0959 13.2553
36.9953 9.72351 -26.5047
-20.6579 15.6496 37.5948
-6.39619 16.3193 21.0773
-13.5416 4.36436 -2.16686
13.9258 12.2977 0.506819
-9.82341 12.9386 -14.3981
1.39664 -3.80513 7.11747
-1.01667 -14.2326 5.09069
3.83679 -0.786436 -0.840168
6.95593 -2.21569 2.67389
-13.1722 30.4248 4.23481
-4.69868 -10.5872 6.14611
6.70096 -12.7415 -6.82051
-20.4953 -9.2727 10.6991
10.9144 -15.0262 8.57917
-2.21475 33.0949 -10.6599
-17.6257 -0.798749 -41.8207
8.23266 -6.99717 -17.8032
12.3681 2.36461 20.0268
-5.84815 9.10055 -5.41555
17.6831 -2.22924 -12.9075
3.23133 4.5743 0.207342
-7.49976 -4.96156 1.14949
-5.64802 -2.44399 4.72607
10.4782 14.5336 -10.9131
-13.9403 -10.4994 5.9117
3.13062 6.80276 2.16986
5.54397 -7.05204 -3.91439
0.823657 13.3896 12.0874
34.6818 1.88756 -12.3561
-29.1818 -2.45754 3.65209
-50.5848 -60.27 15.7243
28.3146 11.7378 20.5576
-2.46421 -4.25038 -1.81947
4.91018 -3.07625 1.0874
2.005 21.2119 -6.15429
11.062 -10.0665 -5.14764
-9.38004 -3.90037 11.9157
4.75395 2.85733 -5.91947
-4.25362 -2.80268 -4.77318
-19.2795 19.6554 8.4508
3.1675 6.94404 -7.2778
0.0259651 -4.78937 3.53269
13.5356 -23.3561 -7.96775
7.26465 33.2468 26.1336
-0.401897 11.988 -23.1105
0.187457 -26.2282 -55.8682
-29.8274 -20.4546 64.0984
-5.52144 6.94213 -16.1978
-12.9666 3.96014 -13.8252
13.3827 0.684924 -8.36535
1.76552 -6.37907 -3.91216
-13.4633 12.9223 3.73532
6.83067 -1.83078 7.28623
4.81466 -0.566374 -8.42653
9.52518 6.51256 6.38416
-15.0915 -10.6128 -1.37656
-5.2908 -3.00762 12.5994
-5.48135 49.9397 -3.68604
4.74908 -1.35103 -0.545554
3.86788 -37.0827 -6.09714
34.7591 39.2252 -21.0888
42.7331 -5.60849 13.5434
6.96976 -6.57133 -6.27972
-15.1896 -1.60768 17.5166
4.22582 -3.21704 20.2871
-2.80069 -9.73888 -5.37417
10.9531 -15.6292 -4.91394
-1.29555 9.38109 -3.62991
10.3386 7.98354 -2.81221
-34.6285 -9.36417 -13.273
17.0713 6.91722 7.27086
4.04912 -2.8823 -0.044892
-7.48825 27.8972 16.2832
27.1496 -37.349 12.8827
-14.2148 2.06309 -20.2532
-51.0461 -25.3557 1.68736
37.4639 -6.16009 -12.0835
-8.69584 1.92909 0.923712
-2.12245 -0.118107 6.30372
-1.4148 4.29696 4.38699
1.462 -0.0550478 3.22556
0.933992 5.57645 6.62992
3.9684 7.48085 -11.5083
4.24523 11.5142 -4.93358
-19.9102 -16.509 -0.32912
11.8376 4.61828 5.63906
-0.553492 -3.58948 1.92451
6.82019 7.55395 -9.73678
-14.1337 29.7066 33.0444
-1.97283 2.391 -2.9143
13.0545 -59.7994 9.96395
-11.8684 20.2933 -11.8823
7.93458 10.0178 -6.6856
1.47676 -8.55867 -3.50005
-8.05128 10.0786 -2.36033
5.27725 6.77288 0.299689
1.57583 -10.8176 -1.53463
-9.76803 -5.88372 0.873399
0.636634 -3.0453 6.07715
2.78306 13.1691 -4.90898
2.84846 -3.21562 -2.40093
-12.0379 -2.59406 4.03418
-4.5793 14.5728 19.5627
-24.9058 -40.0712 -40.9899
25.2977 26.4477 36.2089
-2.6101 25.2731 63.6665
12.6356 -10.0953 11.9906
-14.9933 -5.90807 2.20863
-10.1427 5.37194 -13.8217
19.242 -54.0999 -40.2621
-1.2151 -2.14289 -1.61041
-9.16201 8.269 2.4202
7.57701 0.423585 -3.16384
8.69829 -1.09809 3.29333
7.88373 4.45634 -3.77525
9.32957 -7.34058 -1.46257
-5.54787 3.51895 0.0203235
-7.40336 17.7157 -12.2605
18.0519 -11.3031 -2.22132
-1.40896 -21.3915 9.72845
-42.5118 51.7732 -4.30565
18.5224 -30.8551 -7.56193
-9.67532 4.99655 -4.47089
-2.33122 3.73371 -0.391154
13.7939 4.24836 -12.47
-8.64676 -8.58622 7.95099
-8.31202 6.54445 1.50525
7.53368 -5.87878 -7.50998
-2.17368 4.76881 3.71367
-0.967892 -2.64047 -12.8955
-11.8148 -0.405424 4.77419
2.06968 -4.75869 1.70525
15.1226 -18.811 44.3383
24.7437 40.4282 -2.09279
-28.6792 -17.631 -42.4503
21.2148 -0.432996 18.8438
-39.6718 28.9507 13.425
0.199351 -5.978 -5.07136
4.72794 0.986128 -6.13648
19.2208 -1.69531 -17.9494
-21.4402 -0.645461 3.06605
-3.85712 6.64503 15.1054
-5.68115 2.54646 1.63863
3.80069 7.02365 -6.67692
6.594 0.000422756 7.06686
-5.13244 -4.18514 8.04907
-8.16489 3.8558 -2.09217
-2.13477 -13.289 -23.2696
4.6999 12.5341 -36.3132
12.4492 3.71383 10.7582
2.17984 -2.84661 48.0994
13.6012 -52.5754 15.2009
-12.8037 8.8415 -1.11055
2.0711 -9.53201 -15.9461
30.3992 -2.81926 -4.58966
2.27037 -0.487875 -7.12859
-7.8793 -2.24055 -0.0127037
1.788 7.50833 -2.66508
-2.85222 1.07965 -1.44273
16.0615 6.98564 -3.71486
-5.76626 -5.19938 2.07449
-5.29276 0.960046 7.92282
-3.82131 -9.99477 -38.8871
-28.8226 35.4567 57.609
3.84372 -2.83721 -34.222
-14.819 -50.6227 12.562
28.3865 47.4712 0.246169
9.97126 -10.3422 -1.52747
3.60087 -5.2935 4.90722
-17.1332 17.326 6.21395
-3.14076 10.3674 5.53503
5.35182 -4.68185 -1.63914
-1.34986 -5.36462 -0.758865
-8.00252 10.0743 2.02404
-22.8146 -29.3465 -4.18741
2.55349 1.13384 2.62689
-7.48965 0.894934 -4.13999
22.3553 6.49523 8.3439
21.0418 -49.0928 16.3914
-2.92146 21.3081 5.39065
-30.271 31.6379 -35.249
3.86022 2.6008 36.78
1.73511 0.983854 0.794018
-17.1106 -4.8068 -3.04473
23.4852 16.0888 -23.6667
-1.47507 -3.16151 -2.26781
-0.692086 -4.6249 1.23589
-5.55192 -4.77336 -2.2444
7.27263 -2.54542 -6.50974
-4.77151 -5.79895 24.2353
2.24323 -5.47142 -4.70191
-2.99056 8.68807 -3.92994
13.7937 -1.99252 -3.94373
-23.8079 -6.74051 26.3898
23.315 -5.95311 -17.8975
0.122959 23.5884 -60.5444
11.9386 -1.71127 6.04962
7.12119 10.5084 -1.84602
2.46593 2.07802 -6.17414
-0.9555 7.84455 43.044
-7.69523 5.40399 -18.0747
24.1826 7.44427 2.0305
-4.4979 -18.5902 5.23989
-0.794119 -8.48331 4.01675
-4.89576 15.9187 -20.8232
5.27214 -3.8953 1.50604
-0.432717 0.327852 -6.42318
-8.42908 2.4938 25.7398
-15.9035 39.7963 23.807
18.0889 -32.6607 -11.5417
1.49717 -66.0123 3.14573
-50.1769 47.6035 -22.2704
13.2478 -1.60545 8.47871
0.965626 1.28118 -6.38935
-1.04016 -0.962004 -6.29656
1.25122 -3.27891 0.175824
-1.22695 2.50811 0.00105443
7.26246 2.58683 0.531515
-0.531214 4.89031 4.12934
-3.97896 29.8411 -16.7619
4.5206 -6.11646 5.94797
3.11762 -7.33845 12.1811
-8.60407 -10.9136 24.539
-6.61927 6.75441 53.4207
15.4172 -7.08365 -55.0888
5.58062 -36.6407 -68.2373
2.18287 8.34037 23.1731
7.95326 0.0880534 3.4638
17.5399 -7.72603 -14.697
19.7692 -2.81283 7.80368
-27.8187 9.18377 0.38709
3.1948 0.585031 16.8396
-11.9785 -0.144656 5.21507
26.8431 -7.85897 -2.03993
-40.5976 27.327 12.8685
8.4555 -3.30592 10.0999
11.4937 -10.2509 -16.7339
-17.7853 -13.3485 2.3756
38.8826 -37.8017 -16.8284
-11.0363 32.9704 4.92342
-2.29651 -14.7277 39.673
-27.7908 24.08 -24.1118
1.9114 3.3083 3.24476
-6.85437 3.83921 -5.41726
5.04908 -0.696023 4.04858
-7.84704 1.91634 -0.297477
-1.82356 4.43454 0.0264936
2.26928 -0.715229 1.38653
-5.38481 8.01954 -2.29355
-10.8077 3.92349 34.4732
1.53004 -3.67927 -19.3851
-0.856049 5.41329 -13.548
15.2616 -19.0183 16.422
-9.48839 -1.4907 -0.587529
19.3949 -4.16246 -24.9544
44.9416 31.4199 -31.3077
-36.1017 -1.41322 51.4185
-5.59056 -14.4187 4.83815
0.505757 -1.77202 -2.51628
26.3276 -21.5114 -41.418
-2.66028 15.0909 18.7412
-15.4373 -0.170738 7.04167
-13.7339 1.60089 10.0114
11.0754 3.55867 -0.429862
-20.3013 4.02774 -25.9834
-1.27095 -3.26723 2.94382
10.5323 -8.56119 -0.79731
7.51636 13.5598 7.1488
12.6496 -6.48794 33.3456
14.037 6.30906 -4.79113
-18.325 -39.0058 9.58857
-5.76693 -9.29397 -20.2133
0.163046 -3.10734 -15.9427
24.9682 8.04174 11.957
-4.82021 8.96119 -36.1737
-0.581139 0.401271 13.2512
-15.5472 10.7242 -1.75698
10.2462 17.3224 16.1606
-14.207 6.82772 3.66243
10.8162 -10.255 8.69169
2.55646 11.0901 4.89229
8.24908 -4.37218 -4.0981
19.4894 -1.09196 -23.2275
-58.1538 26.6033 8.04549
4.83173 -21.0228 -13.0532
22.793 8.3112 29.4574
-34.28 21.7901 -2.23071
-3.6569 1.03546 2.42517
4.93898 6.813 2.1718
-19.5424 -21.9897 -8.17554
2.30911 -4.47809 -3.07467
-1.32371 -1.90772 8.63868
0.157358 -0.595719 -5.11069
0.969761 5.2353 1.24862
-2.40943 -12.0551 -25.626
-1.47423 -0.466275 3.58916
-0.547016 4.30439 3.03469
-10.9159 -12.5978 37.8122
17.7714 25.3762 -54.4614
2.09192 -7.19766 15.4366
47.5335 -15.61 2.22998
-10.5951 7.86382 25.9207
-4.58863 -4.48948 -12.2962
2.20062 2.55719 -0.25946
-21.4297 -2.37531 -5.28727
14.0906 2.20366 -0.105336
-7.59778 -2.22201 3.26484
-2.86424 -3.64943 -2.96485
1.53273 0.450175 -2.58662
5.19977 35.293 -36.596
-5.59746 -7.13099 -2.19327
5.6848 -8.69568 1.7929
-18.6462 -29.3426 45.6952
5.1697 2.8144 -43.5641
-0.674299 2.05996 11.2795
24.525 -7.28164 64.8193
3.92619 -36.5447 -1.94877
-8.20069 7.49161 7.86316
-3.22087 -5.00382 -2.97817
-7.1862 7.0281 -20.5267
-0.405788 -0.272936 -9.96459
20.9291 2.42163 9.03423
-1.93888 10.5505 -3.22322
8.51125 -4.47838 2.61845
-11.0737 17.434 -16.3045
-1.85982 -12.9024 7.71161
-1.40783 0.93393 -3.92066
5.50925 0.00164061 12.0063
10.1743 -25.2698 -45.0688
-25.718 -10.5511 -0.87229
5.59681 53.3353 50.8271
20.6988 -22.1663 3.79315
-17.2777 -0.614382 4.53947
-5.39735 10.488 -4.15855
12.5274 -23.6644 -10.4574
3.81261 5.02482 0.057292
2.12464 11.237 -14.3386
0.876181 19.0208 6.48378
-14.1993 -10.2297 0.947414
38.9583 15.5099 -3.87798
-1.77 0.680963 -4.86905
0.325877 -1.16293 6.15414
-58.3073 -13.7821 -5.07355
31.9832 -20.2486 30.9767
-22.4945 4.65753 -20.5563
-9.29158 7.67229 -56.5985
-10.6955 13.5126 17.0357
-7.59603 11.8164 -11.7194
1.71723 -2.2738 -7.41673
-18.5094 -5.27141 39.9583
4.78742 9.13421 7.17508
2.88306 -4.80008 -1.45468
13.33 2.72638 10.9562
1.51851 9.78495 7.70529
6.26419 15.1669 1.15211
2.38839 -10.5723 -7.24029
-10.8374 -13.9197 16.8858
-8.45916 -3.89276 -9.6591
25.605 35.6811 69.0481
-3.82765 -10.3137 -13.7813
9.4828 -33.2731 -2.82688
-28.1002 6.30753 -60.9699
-2.79714 -8.23059 4.21269
1.84541 -2.96721 8.4497
19.1062 14.3385 -22.9402
-0.220598 -8.93256 -0.0578062
-9.05512 -8.47503 10.1083
-3.0507 1.72448 -6.87896
-8.71794 7.00323 6.11689
-6.87242 38.3737 -2.95194
5.3929 -3.92754 -1.08282
3.29322 -12.2686 -4.37979
-0.253844 -29.4034 -9.34518
-2.20287 17.3619 8.0258
0.178231 -8.32949 -9.71438
-1.20827 16.462 46.9531
-4.41152 -0.525854 -22.4932
11.6328 10.1282 -10.5205
-1.28557 -9.42826 -11.033
15.8968 -5.93084 -9.61074
-5.58947 -1.83495 2.17628
2.43726 -0.223909 8.89832
-3.14172 3.43178 4.24083
3.58867 -12.9778 -2.1302
-1.66087 17.5266 3.18584
7.80453 -5.73332 -6.00803
-10.52 -3.7783 -2.80172
7.19599 11.6253 18.3084
-15.7019 -9.95162 -19.8899
38.5231 1.50175 11.788
-36.8635 -8.62693 12.8174
42.8167 34.3057 -2.89826
-9.206 -6.14203 -4.68581
-1.8297 -1.24919 3.57329
6.20178 -6.99552 15.6635
-4.04842 0.756657 1.96323
8.26334 1.01395 -11.0043
0.686306 5.18944 1.41613
5.78182 5.34537 21.7222
-13.766 2.38726 -26.1431
7.95405 -12.8268 -5.11937
-10.5607 -0.40811 1.55339
33.9417 -3.49474 8.74879
-19.3927 6.56514 6.50126
1.72403 -0.420716 -3.44173
-43.8925 23.8579 0.585307
-7.94438 -42.7265 -27.0931
-5.23163 8.65698 -10.5057
-4.98639 21.4935 8.57131
32.919 24.6948 -13.8017
-10.2441 -9.33292 3.33222
1.51903 -5.51258 1.8074
-11.4101 -7.28113 -0.598005
3.98388 1.46754 -13.2141
-6.69431 -17.3497 18.6489
4.25587 12.1321 5.87434
5.77883 -0.162714 8.71646
26.6906 5.88272 -49.9139
-33.0727 -32.0796 8.63173
-15.386 19.8893 9.5957
39.0634 -4.93302 33.0994
-34.3918 -33.7972 8.40092
8.093 -3.16846 1.13816
14.3489 -12.4429 -5.16033
22.3492 39.4164 6.98161
-3.37354 1.58387 5.14467
-1.15037 -11.9339 -10.8265
2.62319 -18.4568 5.20124
5.31977 -0.883527 4.24496
-10.5965 3.43608 -19.9178
-2.12642 -1.63695 6.56795
4.99607 5.82936 5.91169
-14.3164 -21.0609 -6.91106
11.3661 4.74845 -18.1058
-8.85998 4.78994 18.9799
21.4199 14.1043 6.6916
-9.4715 14.4887 -13.3282
-4.12462 -3.14484 1.84984
4.78447 4.91919 4.07947
-6.96944 3.70789 -11.612
-0.978645 -4.01815 9.34521
2.50175 0.0162769 6.27423
-10.2839 1.34242 0.62385
3.83033 -2.699 -5.1854
-27.9639 -0.347765 -10.004
13.4899 -2.47701 0.872549
4.5659 2.1314 3.05158
0.76499 -12.9183 9.08491
-41.5151 7.9745 9.26927
23.8065 -9.87111 -17.7602
-6.68977 -5.43141 1.35934
49.0919 13.5871 -20.8486
-8.68997 12.2321 -1.20854
-8.7171 2.69916 -16.8492
-9.78588 19.8258 8.14075
2.66608 -4.40496 0.898015
0.463934 -1.14239 -4.39438
6.32783 -5.66571 -2.07163
1.44103 -9.90555 -3.67036
21.3548 46.811 -13.1378
-17.0603 -12.9176 3.36797
-0.928037 8.63913 7.78424
-10.718 -38.716 12.9023
-16.6646 -46.1886 4.40091
5.88062 0.70512 -11.5419
43.3658 41.4245 13.1838
-17.4773 -46.0655 63.561
2.27938 -5.29802 5.48606
0.443691 0.781463 8.66033
22.1969 -8.54171 -11.7176
-5.493 15.6376 8.04669
-7.45189 3.0508 -6.87214
-10.4542 2.4044 1.37409
5.78453 7.57149 0.470168
-47.6094 -21.6139 20.444
-4.04092 7.58579 -6.44652
15.1353 -0.846488 -5.40218
7.24647 10.3466 -5.99978
73.0922 -27.5547 19.2359
-33.2996 29.0667 -1.13358
-37.4618 20.5397 -41.3129
-5.7278 22.3292 1.21517
11.9502 -4.79324 -2.70791
-3.42868 -0.0609328 -5.61461
-3.19961 9.42527 -27.3264
-2.00289 -0.856483 0.619608
4.34048 -8.93012 0.835327
2.2354 -9.14092 2.11705
14.1992 -8.67065 11.0233
13.92 -6.24472 -5.51788
0.14183 -7.52559 -2.49175
-9.78234 6.58998 4.86342
-6.08435 12.856 -31.9113
-13.3386 -11.4107 -15.8017
-8.59672 15.8649 34.389
39.2235 3.07357 -27.8375
-38.4058 -48.549 -6.18519
14.0175 -1.11143 2.46235
0.684267 9.36914 -6.97546
21.9207 3.78669 21.5713
-11.2864 12.5085 6.59576
2.96136 2.34106 19.3937
-4.47628 8.84545 0.784958
12.4805 6.36983 1.58721
-40.437 -24.163 -19.2889
7.39513 7.51587 0.0342541
12.3466 5.33906 8.60512
3.33139 7.78182 16.3493
39.0671 -13.5249 -25.5096
-46.4265 14.6465 35.3677
0.28582 -10.7639 -31.4827
29.6103 5.93796 11.2235
5.06707 -3.67546 -18.6466
-14.4019 -16.6773 10.3423
-11.8652 6.2024 18.1481
-5.50464 -0.163784 -0.153857
4.11887 9.18994 13.7481
9.12914 14.2511 -5.16099
-6.8391 -0.394967 1.24983
47.9383 20.3913 -17.0543
-0.645755 -4.01791 3.67155
0.235463 6.01972 8.07698
-31.8344 16.5637 30.9529
20.3405 -8.46637 -7.6528
-31.5127 28.7682 -7.49347
-4.29839 -17.2516 14.1438
-17.1176 -34.5193 -7.93119
-5.14225 3.25312 4.63861
3.76985 -4.02835 15.0004
-33.7051 17.4184 -26.6141
7.62085 -1.90716 8.20235
11.3607 -3.18263 -4.09481
20.687 -19.3552 58.5366
-2.53796 -5.41598 -0.111434
6.15012 -13.304 -12.6769
-13.456 -8.69835 -10.117
11.7808 -6.09387 9.84766
-12.5646 11.417 -19.8208
-2.42499 -1.66954 0.879714
8.46671 6.18085 -2.7071
6.21296 -4.1514 2.97475
-20.568 30.9882 -19.7622
3.78798 -8.34076 9.22878
5.06961 -8.48336 3.25136
33.9658 -6.48184 17.6076
-3.0729 -0.817597 -7.43235
-9.77407 6.18848 -1.83048
-12.0366 -8.63935 7.43426
-12.0623 6.68627 -7.49312
6.76383 7.44321 -14.791
7.02306 12.8807 -3.31105
-3.87398 -3.22676 -0.584769
5.43904 0.821217 0.156325
-6.94816 -0.870878 -1.9837
-12.5634 10.6154 -3.37303
-13.8157 22.1681 -7.66849
4.70479 2.6212 3.45514
1.87197 -6.04927 -3.12851
13.9296 -19.9712 -1.45995
-3.76603 5.43613 28.7141
32.1323 -21.3371 -3.72155
0.879543 3.205 -5.62489
-7.11528 2.89145 -6.31603
-5.30866 -12.5736 -13.6912
27.9864 28.0453 11.4179
-27.6107 -40.2464 -8.70197
-5.54943 -2.48546 2.83319
6.26156 8.25345 -6.32144
11.7989 43.3362 -1.01482
-8.8402 -4.05572 -1.26695
-3.69202 -9.24995 -3.34225
-24.2907 -21.8563 19.7424
-2.37403 -7.89059 0.58562
-2.34339 -0.392594 2.9265
9.57356 17.174 -18.8269
4.14712 0.988915 -1.57635
5.95354 -9.50462 2.22244
7.9494 24.8126 -2.82102
-4.06363 -4.8224 -13.9243
4.72544 -3.94826 9.63523
5.19033 -5.14605 27.5
-2.66375 2.52312 -1.42316
4.09406 -1.10606 -9.30613
2.6348 15.8706 -6.43134
-8.10295 -6.8866 2.85632
-2.72105 -2.69369 -5.58979
-0.591806 -22.92 -19.3718
-5.46788 -4.14775 14.9574
7.6766 4.42058 10.4932
11.3001 -2.43812 2.85238
2.51628 3.131 -2.56184
-2.68189 -7.06411 3.57729
-10.1605 0.58198 3.28017
2.06598 1.52388 -3.58825
-0.34028 0.204468 4.262
-5.36927 9.39754 7.87643
-1.98594 11.6989 1.75525
1.85028 -16.2642 -3.23995
1.10029 -8.28309 -35.2073
-14.32 -7.10401 3.75987
-6.87811 2.72043 5.55702
36.4207 24.6405 20.9666
-1.7798 0.0177089 -0.488667
-7.03676 -2.93663 -4.13795
28.748 24.6103 -12.3436
2.09226 0.182937 7.70728
5.69414 -2.95286 1.75124
-53.2764 -35.9148 -9.57092
-2.58407 -7.13807 0.494014
7.51724 2.57263 10.5376
8.99188 -7.68434 -4.97887
6.04921 5.69046 -0.429339
3.79136 -8.94943 2.39205
-3.22375 -20.1553 16.4134
-1.83911 13.738 -3.80521
-10.4164 -16.9375 1.07753
-7.96573 35.6049 -10.4958
9.62795 -1.18083 3.93708
-0.680275 -0.204742 0.600411
6.5694 1.75667 -3.26637
1.13415 -8.8238 1.75275
43.3703 -2.21295 15.7885
-5.64853 6.66993 -7.66033
-12.6543 3.36784 -8.03072
-2.16468 6.79465 -14.5715
17.9491 -1.23511 1.10039
-5.63859 4.66623 -1.58909
-6.19256 -0.412321 -5.23984
-29.0909 29.5589 12.6421
11.2425 -7.61068 -25.8652
12.1846 -0.215615 -9.16248
-22.155 -2.3806 10.8551
-0.87258 -1.54303 6.19939
-1.90233 6.06695 2.77505
24.7338 -52.3507 5.71245
-2.60726 14.6224 -11.4172
-5.9276 2.21056 8.36369
-18.2376 24.9945 -2.86549
-3.20828 -4.56721 -2.89775
1.37963 -3.39913 4.60927
-1.32955 16.9061 -11.5925
1.99348 -9.8984 -10.2024
3.72013 2.3214 7.26408
14.0547 -14.686 16.5787
-7.73575 -1.53448 -4.34904
2.13342 1.11616 2.98902
-4.0143 -1.58185 43.0266
-7.19031 1.03964 2.90496
-5.75381 2.42661 -11.9905
-2.67523 -7.96165 -32.9116
-0.114916 0.573455 12.7705
3.83344 -0.000416187 -10.1422
0.756624 26.1609 26.573
5.33567 1.61846 3.98682
7.2701 -11.1381 -0.941496
-4.49056 -18.6049 -39.6164
15.2183 4.58866 -7.3793
7.89573 -1.34388 8.89955
-4.84338 -14.4669 0.668001
-10.3322 0.383496 10.5649
-7.53963 11.1707 1.29673
-42.8545 45.1827 -0.88941
0.713106 -3.62798 -3.99195
7.53909 -5.02747 14.1336
29.4057 -32.4297 -35.6371
4.79648 5.95566 -4.75027
-2.93884 4.25276 6.1191
5.69915 2.48409 -12.0238
-0.864605 6.84061 2.19994
13.0468 3.34923 3.02996
7.83851 -19.1513 42.1356
6.74269 3.60998 9.77991
-3.5144 -6.60673 1.63887
-0.909434 59.5834 -45.6166
-4.98654 -3.10331 -3.14568
-3.4609 -13.771 -0.896162
6.49442 -30.3387 40.2638
-10.2619 0.444531 6.23854
-4.78486 -1.62104 -8.17776
18.1432 -25.134 -2.28698
16.6539 4.60756 -0.952677
-17.1835 -0.580787 -7.80304
-42.4852 26.9971 -12.124
10.552 -5.31923 1.8179
0.964557 -0.00377163 -4.471
4.04865 7.14559 4.45059
-2.73778 -0.134174 16.888
-4.03434 -31.6819 -27.2215
0.532328 -1.6975 4.55661
-0.475491 3.41442 2.0306
-44.6851 6.35146 13.4292
36.0925 19.0115 7.60332
-1.23844 -7.31553 1.79544
-2.88158 0.5122 -2.27831
28.7629 8.76768 -10.8476
-17.7338 -12.4676 15.3058
1.34336 -5.74068 11.234
14.3297 10.2092 12.7176
4.22542 -3.47081 -3.78045
-6.04687 -0.744627 -4.09879
-31.2949 -27.7618 13.643
0.0393661 12.9437 8.40601
2.49637 3.58102 -10.0688
-10.6423 -9.19274 -8.1138
-0.28297 2.76753 0.898337
16.8733 16.8767 4.37571
35.564 20.9862 -9.55515
-12.3625 -10.3462 -1.50873
-3.81947 -2.53208 4.16762
-2.71487 0.789165 -14.4632
6.05879 -3.45412 -2.65614
-8.02855 3.12077 3.30123
8.27418 3.82415 13.081
-9.30729 -0.982168 0.422329
14.4848 -3.20026 0.146623
-14.4793 10.5456 22.2198
-2.33523 -3.56217 -7.50442
1.80879 -9.11638 -2.90594
-31.5581 -15.0669 4.04399
2.84966 -3.22568 -5.54385
9.23547 0.99051 -1.38825
34.9521 29.1862 -5.20596
-0.351256 -7.09608 1.97052
-13.0104 -7.95619 -2.40619
-15.5162 -11.917 28.653
-2.23011 1.97461 -0.306379
0.131154 -0.135545 -9.04255
26.7717 14.2784 -24.8897
-1.06261 -10.2156 7.9046
-6.47256 -0.615031 1.92975
30.0799 -10.8453 4.40524
-8.26132 -0.334366 -0.155257
-1.22005 6.39806 -3.77138
-36.0497 14.9955 -13.7902
3.45368 0.580519 1.30199
-2.07747 -2.94046 -6.74067
7.00216 2.34174 7.39593
3.749 4.20871 -6.12583
5.88136 -10.4749 15.3413
11.3197 6.61595 -13.485
-14.9774 4.17603 -9.66592
-2.35483 -3.98017 9.03722
-11.1024 -42.0205 10.0271
-13.3003 14.2931 2.22622
-1.55841 -0.31042 -6.07144
13.3001 4.63944 -34.6957
9.6586 6.71114 5.31151
2.06339 3.58251 1.61909
-11.5534 19.435 29.1541
-0.636314 -11.3461 -0.783462
9.52948 -12.0424 0.582645
-7.39505 -0.474559 -3.74513
-1.09228 -1.6695 4.51908
-27.184 27.8095 21.4303
1.72229 -8.28249 9.36899
10.6259 -2.9075 -12.8005
-0.878393 17.6601 -42.1035
32.0134 -31.6368 40.7947
-4.20587 17.8757 -20.4168
3.37582 2.47019 -0.535057
17.0982 -11.0255 -33.0681
-42.9841 -3.92635 21.1773
0.780026 -15.1157 6.41034
2.9669 25.4063 16.8973
-0.0482611 -1.8928 -8.02524
-3.44019 0.319043 -3.24513
-12.7796 -18.3204 6.96499
4.82907 0.0394209 -0.58497
-1.18556 1.71202 -6.82626
13.6424 5.84517 -8.90174
-9.25105 5.53866 7.88923
11.8241 -11.1302 10.1466
-10.392 11.8316 -22.1648
0.548659 7.20693 -1.98825
-5.03391 -0.359469 0.8197
37.3703 -20.5487 29.4434
9.52661 -1.39329 2.80407
-9.22886 14.6905 -2.16544
-29.4542 -15.1979 -16.4181
12.2134 0.423686 -0.93701
-7.25957 0.537614 6.23465
19.4376 10.9484 12.3178
-9.75389 -1.26923 -8.04443
-3.50911 -14.742 -1.04494
-19.0859 12.6396 -5.75352
5.97669 -1.43328 -5.46277
5.70953 9.17407 0.291123
15.8596 0.796257 -14.5688
-3.97003 -0.155007 4.96893
1.50409 -6.22887 -4.21123
1.64484 -11.6523 16.2181
3.82985 1.1118 -4.10715
-6.01275 -4.33359 0.557842
-31.1642 11.3673 -19.0354
7.21518 4.32634 9.35823
0.480534 -6.84642 5.00532
21.5461 10.5781 0.960458
-6.57862 -0.767227 5.14595
-4.31669 -2.84974 0.0854497
41.8007 -14.01 -28.7905
-21.6117 2.04022 17.4835
-1.0795 -7.48969 7.47125
-4.96726 6.87349 -31.7161
0.0231397 -12.3165 -1.83991
-5.50474 6.50175 12.1798
-0.87312 7.85966 6.62407
1.41216 0.361037 -0.0566066
2.95935 -3.91706 3.65195
-2.9353 -2.89312 -2.92843
8.7302 7.45904 9.20606
1.52962 0.731739 2.13206
-42.3957 -16.4491 -14.0353
0.58114 5.77418 7.08107
9.2622 -1.58464 1.90855
11.7337 36.6578 -0.105948
6.02811 -16.7841 10.8845
-6.17309 -6.52143 12.2896
5.19002 -0.133719 -12.8697
-5.8236 -12.2535 0.663973
16.0399 27.9632 4.0204
2.26622 5.24897 1.96615
3.83406 -1.87964 -1.24238
-2.54299 -26.1103 -55.95
-21.071 28.0242 -6.50743
9.72196 7.85908 -4.28042
3.12512 -9.19311 9.40863
10.9325 -2.49971 15.8392
-17.5355 -13.4063 -4.86691
-3.41225 6.72841 13.499
9.92642 -9.39748 -12.0053
1.3339 1.6902 1.63781
4.5656 7.1568 0.0031913
6.54194 14.6966 1.29065
-1.13284 -1.81902 -0.052515
-4.3897 -5.00946 -3.70182
-20.2504 -15.1413 -20.9441
2.68425 3.30911 -3.49898
-13.3542 -11.3599 -0.360846
55.8209 18.8121 15.9618
-3.24118 -1.44198 3.0429
-6.92372 -2.03575 -1.44778
-83.2123 -26.7507 -4.9542
1.69533 1.07546 -0.271501
18.6159 6.60222 -0.685487
57.1852 50.7047 -4.85992
-4.35762 -11.3584 13.5033
4.50463 -13.2782 -1.51288
6.01868 12.1547 -18.1359
6.46772 -7.4023 -1.1724
-1.01781 -7.93325 -12.5287
-40.9617 -35.8157 21.0643
-8.77109 -13.1419 19.1377
2.06062 14.9862 0.955379
21.2438 20.5152 -7.32279
-2.44069 -0.932666 -2.37843
4.38332 5.58388 -4.25091
-11.154 -3.88074 24.9443
1.39138 6.76251 -7.8733
2.54677 0.895448 0.110445
3.69116 13.1815 3.32063
-1.7413 -3.18837 -3.16862
-2.70705 -0.0622045 -0.303334
0.99041 17.9972 -0.463471
0.512279 -9.62532 3.90298
4.83078 -12.0208 -6.02155
2.48841 -4.86431 0.223
4.73444 2.1438 -13.2154
11.7169 6.40931 -12.5782
0.999286 -5.01579 0.264221
1.08687 3.24996 0.227068
-31.6426 -31.0823 12.705
-18.3606 3.02004 -2.59909
1.0219 6.50342 -12.7294
4.19562 5.2083 9.52254
1.64816 -10.2916 12.3314
-20.3423 10.7802 6.8236
14.3446 16.7663 -8.01091
17.2007 21.2053 -13.0444
-3.37245 0.647697 12.8404
-7.81951 -7.41652 -2.16629
8.77501 -17.8589 19.0299
12.9773 -3.66236 -2.03754
-10.2966 -28.3275 0.529611
3.85743 4.43552 7.94842
2.07018 9.00591 9.37515
-5.71349 22.9667 -5.95036
9.90677 -7.92979 -1.17308
-11.8799 -7.74974 -7.28686
4.54821 1.57924 -3.31608
2.68839 0.581561 9.96274
-5.88452 3.04757 -7.90537
-4.39745 -3.12728 0.854409
-33.5545 2.37984 -35.9467
-2.68905 -6.85937 5.36242
9.23892 -4.41488 -1.62356
-0.366551 43.2681 19.9684
-0.816419 -12.525 -2.51233
-4.3518 10.336 -2.45166
11.1542 12.3245 -5.74546
-0.310132 -17.6687 -0.539367
3.22555 -10.8894 0.944014
6.76027 -8.05654 6.8367
-1.90653 -6.94279 6.16401
-4.44253 -8.04521 -2.42512
0.529995 0.0909912 -4.89343
0.0910174 -12.7248 16.3697
19.0136 60.7985 2.23439
10.5 -29.7681 14.9693
1.47393 -3.11175 -9.84884
3.3742 11.2826 1.83034
6.87939 15.8385 -51.8911
-22.256 -10.924 30.9296
45.7347 -47.4838 15.7317
-57.1849 36.7327 9.56519
10.9907 -12.2974 4.59698
8.3589 -8.41923 -0.250256
4.50521 -8.3448 6.58207
-2.9023 3.68717 -7.94988
-0.153828 0.0681465 -1.81326
16.3311 -4.12647 11.5004
4.86318 1.57044 -4.25372
-7.3249 0.337405 -4.53805
-22.2017 35.8821 -29.1546
1.89324 -11.9346 -13.0647
-2.6166 1.94415 2.25644
5.21967 5.32958 34.7557
8.1079 -7.96705 -0.135312
-0.38718 -7.0172 0.867552
-15.6102 16.1527 1.1699
17.3056 -3.70047 4.61224
1.57941 -10.6225 -4.81882
17.4878 -26.8026 -29.8293
-0.411263 -4.77423 9.72372
-13.9158 9.77381 7.41403
-17.6805 -15.9253 19.3841
-3.84184 5.25491 -5.51074
6.95508 4.48707 9.04221
25.3614 15.3096 7.03772
8.83554 2.23134 -21.2135
-0.586883 4.53147 2.98257
-47.9318 3.28909 -6.22244
12.8672 -2.17589 2.88815
15.9052 -3.1087 1.04926
7.4367 17.7529 16.0695
7.78485 -3.56675 2.04929
-10.3792 0.782377 -4.2103
-12.1271 -18.9807 -33.7715
12.2225 2.34607 4.73641
0.683534 10.4834 3.90994
-4.08475 1.22673 5.8609
2.26248 -7.59981 6.14497
26.5201 17.1569 11.3916
-7.35642 -7.99858 5.46184
-3.97872 -7.22545 -10.0199
-1.61168 -19.6159 -13.0578
4.2251 12.2983 36.1469
-0.977566 -6.49375 -4.10075
5.59942 -2.01731 3.98856
14.1718 -37.0336 -22.0474
-20.0855 31.2302 9.0572
-1.53914 -1.38761 12.2823
24.7114 11.6023 -22.1542
-8.93036 10.1705 4.255
-9.19975 3.74378 4.5053
-9.80183 -14.248 -17.4191
-4.2676 -4.94191 1.02169
-5.88175 3.3714 -2.56878
-14.1165 -25.7959 44.2157
17.0625 4.8338 0.258099
-2.34365 14.3226 -0.983008
-0.659683 25.1054 -16.3074
-4.426 -7.94527 3.31073
7.34667 -7.25266 0.127385
8.19466 -1.78109 -10.7137
2.01238 9.33743 0.191995
7.28825 -7.51135 2.01828
-38.3694 -25.5517 5.04593
9.80126 1.23278 -6.9921
11.3622 -9.59012 5.51989
30.3004 9.52893 -12.3741
-1.05729 10.0413 4.59738
5.02421 8.18452 -0.430714
-31.9613 33.5225 5.78663
3.23045 -9.31461 -2.29737
0.514659 -5.697 -5.88331
24.3359 -1.36627 13.0923
0.558933 -0.533613 -9.69394
1.12462 6.56457 -5.40735
-8.40661 -14.9884 14.2029
9.43039 -9.23005 -9.71329
-4.80242 6.63702 -15.891
5.48152 10.1345 -15.4392
-4.42441 3.89079 15.3053
-2.30019 -2.1324 8.77792
7.27435 -22.416 8.40466
-4.07274 5.69749 -2.046
-4.82124 4.30754 -9.04915
28.2849 9.09419 13.086
3.03642 -2.82877 -7.54022
-7.32 -6.61413 -1.96677
-33.8852 28.2962 -2.28399
-0.448196 -4.93488 6.62517
-5.68339 -2.21622 -4.50075
2.61129 -0.380976 -12.1928
1.30915 8.91514 14.3452
4.94941 -15.5973 -8.78063
-1.75881 -3.56267 17.8144
4.42642 -4.5046 -1.63136
-6.23805 0.371942 0.989023
6.53926 30.402 15.3481
6.29481 -13.8206 0.112979
-9.93486 -10.4675 -4.60482
-17.7828 -11.0698 -30.9188
4.05012 4.84672 7.40159
1.90106 -5.24843 0.695764
11.4722 4.11703 7.26533
-5.66388 1.89105 2.36374
6.08557 -1.62382 12.8829
16.7374 5.42868 12.9909
1.97593 -1.49464 4.07908
15.5914 -23.2891 -30.5087
-22.0198 6.9065 -15.4897
7.498 -5.64333 7.16629
1.9189 3.37171 3.90495
-18.7102 5.80979 10.4237
-5.64863 15.8736 -10.9457
10.9403 -19.8946 -14.5198
-45.2749 21.1464 1.32384
-9.5193 3.57004 -2.5433
3.01946 2.01089 -0.0765712
52.471 -47.2448 22.696
-8.33425 13.1049 -4.19238
-7.42943 -7.01375 4.20968
-0.526014 8.49255 -9.38341
0.109411 7.63811 2.24719
-17.3383 7.8788 -13.2828
7.51561 0.0934109 -1.5121
2.38697 -0.391039 3.79634
3.47813 1.41961 5.98684
-8.95513 -13.1703 -15.0247
2.2887 9.84565 8.28877
1.61154 6.73939 -0.992809
-22.6674 19.9396 -22.8338
2.75367 2.34564 6.46921
6.41564 -0.988591 -1.71719
25.4779 -29.1781 33.4512
-1.38552 4.1742 -4.57816
-6.2144 5.98231 -1.35098
-20.9195 -7.03279 5.78163
1.06772 -3.88284 -6.84123
4.72153 10.0855 2.69383
10.659 3.99236 -6.13065
1.08464 5.2745 -0.745423
26.9131 -8.23548 1.8295
-3.06585 8.44416 0.0565507
1.81122 2.17279 -7.65256
-4.34481 -17.7606 -7.51593
32.1992 -4.53473 35.9139
6.81349 2.86689 -1.24711
-0.972951 -3.80487 -0.449747
-24.3796 31.8067 3.85444
-4.94122 9.00567 3.01088
5.91935 -25.5136 -3.47466
-33.8433 -5.25317 10.7646
-0.779016 8.72523 -2.79531
0.957682 -6.81004 6.84404
50.4019 -10.3804 -16.3858
-3.24498 0.577708 7.11455
2.53875 3.02183 6.34268
-24.9651 36.9484 -14.8366
1.21305 -2.21849 -5.60462
12.5636 3.52199 -5.96913
-20.2555 10.5659 -11.4662
-2.58685 -2.57709 18.3166
0.420487 -9.49983 3.0205
6.61936 -29.0151 22.8998
5.85165 1.70015 -7.86295
-3.30978 7.92546 -7.75993
-31.8395 10.2873 15.5978
-1.26832 -0.290019 11.2819
7.75412 3.37038 -6.58652
43.8692 11.1065 -51.6856
-5.75658 -1.7154 -9.5036
-3.14888 -9.01617 9.8132
-7.8841 -7.22034 13.8963
-10.663 -4.78894 10.071
-0.8956 -2.82084 5.1691
-6.99379 -28.3184 -35.1405
0.647057 5.54044 5.66904
5.11887 -4.90803 -6.53741
9.21046 -0.456227 24.0308
0.444814 11.1545 4.68353
0.604283 1.5425 0.944592
-1.03231 17.1902 -4.85666
-0.119747 -3.60742 9.25637
-2.385 0.198467 1.36777
3.70822 -0.650048 -10.0927
-0.369915 -0.569635 4.15697
-2.37079 0.184902 2.88268
-0.291786 -1.61219 2.77141
3.66409 -5.21301 7.54668
-19.6296 20.5232 -17.813
-4.60582 -3.36342 2.82328
8.31709 -5.91243 3.2842
4.62174 8.89787 -44.0323
-23.1383 -21.601 16.7672
6.4039 -15.5294 -15.7762
-4.696 -6.32339 -0.358217
-23.1434 0.636714 8.06666
20.5634 8.52046 -8.2285
0.292197 -8.7705 4.35782
-2.24284 14.6011 14.2583
1.81091 -4.38163 2.93852
4.00551 -10.3227 -0.668115
-12.1715 6.19488 -21.7934
6.97283 11.8493 -0.692537
-6.39675 0.961762 -5.08704
18.486 -23.1349 3.08904
1.57217 -2.86738 -2.06217
-3.22539 6.86415 -12.0351
-5.66522 29.1554 48.0635
-3.19695 -0.537217 -2.19127
3.69588 4.77285 -23.656
-16.7779 -43.597 17.415
2.3403 11.8387 -12.1355
3.02987 2.67769 -13.2076
4.02083 -16.7025 -0.95579
-1.39105 0.169351 19.9055
-10.1613 -5.47758 7.60942
-22.3402 14.6661 -10.4165
-4.54915 3.70879 15.9578
1.50873 1.91339 -6.58206
28.9171 -6.24119 -15.3229
10.7179 3.95947 -23.3915
-12.1691 -3.65199 19.0254
25.7566 21.9395 11.3901
-6.55285 -14.8651 -4.41656
-3.77708 2.83346 10.4112
-13.7149 0.343436 -6.76389
4.55947 -2.72945 1.26327
0.277008 0.928709 1.30117
-7.76846 8.76178 -18.6261
-7.76516 6.41765 3.81459
-2.17079 0.538456 -0.472623
13.0483 -14.7124 8.45049
6.57755 -0.0357766 -2.16305
-6.74443 -0.64787 -2.58789
-0.957661 3.40514 4.44583
11.3409 -9.49952 -8.80952
-28.0847 29.1969 21.7098
8.83672 4.99058 -5.19243
9.59205 -4.46528 -6.44552
-21.0551 28.7204 -5.82778
-13.2034 -24.8011 -18.8673
-3.19002 1.73128 -4.83853
8.95669 -6.52072 -1.79665
32.0757 -33.7178 -11.2975
-24.1873 -7.06685 2.74414
-22.7587 -22.5047 33.1392
19.6026 24.7367 -22.912
-3.47666 -0.165627 -0.35956
-2.81878 2.30697 -1.75828
-2.51294 14.8203 -8.34794
-5.06747 -1.26049 4.46145
-43.2686 -23.1847 -3.06974
9.64444 5.82272 0.100833
-4.34338 -4.25221 6.2759
55.345 12.3725 1.50164
-4.67289 -3.62718 1.31379
-8.83723 4.08477 5.85367
4.30134 5.43643 -2.94747
-15.761 -34.0999 -10.0959
2.71944 -2.34036 0.184871
0.115909 -0.668104 -4.04492
27.2265 10.1392 -9.17476
-2.11613 0.292455 -2.14357
7.38869 -6.88073 -3.17285
-21.5112 18.1257 29.3647
1.46147 -2.87812 0.0111708
-11.562 -4.90723 5.40762
-1.24962 11.3614 -19.7797
-3.24933 -4.66032 11.4104
9.92288 -0.214653 -2.43048
2.17797 1.31428 -0.114182
7.18385 5.52245 10.6259
-26.7311 -6.77277 2.29329
-0.147968 -5.3075 10.3404
6.69712 -10.3402 3.67575
34.6608 12.6735 19.384
33.9241 -11.021 11.9331
-1.34094 -0.624928 -13.88
1.93746 -17.5012 -27.7666
-27.5444 14.507 35.0694
12.144 6.33578 -23.7031
-13.2032 33.9241 -20.5408
38.4365 -1.51566 2.90659
-13.4049 -3.44172 1.59106
0.353872 5.548 -0.714672
20.9062 -9.3005 35.1442
6.83984 -3.28346 -10.4659
-27.8666 -8.3752 -15.8899
0.93699 -13.729 -14.1487
1.182 -5.75372 -3.19874
-4.23986 17.6813 10.6804
-3.90576 10.0034 1.4709
4.26639 4.22525 -0.0124632
-0.943809 -15.7594 -4.54532
-62.7644 2.19304 -6.82374
9.96288 4.03954 4.54844
-0.0472717 -1.62081 0.0210702
40.2541 17.4381 13.1532
-6.55992 1.96416 2.42576
4.9228 -8.48253 -12.0803
-10.7597 11.8128 -0.399541
24.5662 -1.80233 -0.918391
-0.467659 8.22548 -10.3103
-16.1279 -9.63203 0.01232
3.037 -6.42488 2.47429
-1.93625 -3.96538 2.2656
-4.80978 0.632964 1.13001
6.89942 7.11216 4.04049
8.2175 -12.1398 12.3312
-10.5069 -2.13552 5.48716
-3.24769 0.241651 6.29181
-5.34156 43.2885 -23.5398
-13.9762 -16.4442 9.93821
1.34266 9.38181 1.03878
5.9452 16.3327 9.62888
-0.990003 21.1544 9.54718
-21.8233 -41.9757 0.52721
37.8327 9.8274 0.688211
-16.801 29.816 -13.8061
0.0143555 -8.82604 -4.03962
-3.46254 -2.86453 6.92963
20.65 -19.0616 -7.57585
1.9888 1.76801 6.32577
-1.28517 -0.625115 4.92607
-5.83601 -9.47974 -8.41728
-3.33398 2.47813 1.136
-15.2612 5.78801 6.46737
7.3956 -3.91771 -5.7131
1.21998 4.62192 -1.59508
-5.20359 6.00353 6.43386
-2.01355 27.9286 -9.99116
5.07655 -4.73873 4.09131
4.28989 -5.28437 5.02149
-0.781848 -18.6417 9.00505
9.56032 -2.17674 4.93836
-10.0638 5.24311 -6.67509
2.78089 19.3306 -47.0763
-0.0585833 -1.12592 4.87228
-13.5877 3.57543 2.13836
11.552 -5.4146 21.9025
-3.93756 -1.43272 -2.25716
5.26167 -0.888391 8.28494
-39.6455 -36.7374 3.31254
1.96405 -1.72152 -0.85464
-2.27139 -0.577611 -7.09627
36.5109 19.7184 -16.143
1.42452 10.3692 7.60596
-1.37543 -0.286982 0.355769
3.64244 2.13191 17.2718
-6.66335 3.22257 8.11764
4.34836 -4.41182 -5.9418
15.2044 -6.12615 -8.22645
-0.721656 3.41001 5.97873
-8.14425 0.911837 -3.69708
-5.26243 -1.91086 4.66169
3.32999 -7.6015 -2.7069
-7.48972 19.2304 6.58757
-2.15955 -4.82471 2.80622
5.3079 -5.32216 -5.80265
34.7693 -30.8862 12.7987
-27.1019 -6.1339 -18.1403
7.27988 7.5413 11.6027
5.90891 -9.16845 -2.76581
-14.9152 15.795 20.0569
-6.83054 -1.32115 -15.2531
-6.74495 -17.8281 -18.2589
12.0987 14.8765 16.5856
6.62747 -6.84389 4.13953
-2.14998 -2.36919 10.0669
-12.619 12.1761 -27.4954
2.83911 12.9271 -3.76076
7.93857 -46.699 6.55657
-7.54982 13.6158 0.489184
-2.64445 12.7848 -8.13243
8.73776 31.7002 -10.4637
13.9168 -0.0341095 2.48134
-2.39036 -4.88076 16.2508
-6.58723 -2.28166 -1.34594
-12.6274 -4.77024 0.523407
10.6323 -5.32079 3.1268
6.34157 2.26606 6.9469
14.7963 -13.8855 -1.65137
-1.97612 2.33563 -4.39838
-6.07338 -3.97218 -1.54345
-40.9308 28.6413 -7.1975
1.40686 -6.0024 2.91441
8.00242 -8.78178 -3.97891
16.3144 -22.8911 9.29004
4.29662 5.07668 2.48417
3.23911 -3.38623 -2.641
-3.76855 7.47735 1.44286
9.23925 -0.183649 -2.27771
8.33173 22.7952 10.7157
6.39114 0.428019 -0.297377
4.97755 0.887118 -7.12254
-2.99588 -15.9138 44.0412
-28.3926 -23.1111 -86.4982
-0.150893 12.8449 5.09428
5.91932 6.69266 8.2562
-7.06844 -3.95582 21.1425
-4.1848 -3.05558 9.35866
18.351 14.1682 -31.956
28.8136 -12.1128 9.24646
-9.20314 -5.36248 -2.72699
-1.30593 3.77812 9.84381
-39.4959 -17.9532 -14.4287
-1.7925 7.83255 -1.1679
29.5385 -0.24989 -21.6108
-6.33828 4.53132 -2.22447
-8.50303 -3.21271 15.8984
-20.288 13.4331 27.389
9.24016 -11.1793 -0.726749
-1.28696 -6.87171 4.41108
6.81357 0.124238 -3.49889
-8.88996 17.3534 3.41261
7.46184 9.82843 -5.40806
-3.67526 -1.28694 4.9961
15.9874 10.642 16.7935
1.92303 -1.4602 -5.79782
11.0541 3.49051 -8.9489
-16.9234 -40.3767 11.1617
8.06981 6.60427 -7.05103
4.58157 2.41493 -0.328763
16.8236 1.42179 16.8467
-6.46782 1.13501 -13.6235
-16.8014 0.567771 -3.65734
-4.13207 9.08523 -5.31195
2.02932 -1.20992 5.02455
-4.57873 -3.73627 -17.0073
2.04438 0.577565 4.64397
10.6165 2.22581 2.16341
-48.5317 8.91798 -7.09475
-0.454143 -14.6347 -5.09258
6.45008 -8.88991 -1.65045
9.4322 -3.0819 10.6128
53.6412 9.20994 29.9146
-8.30719 -1.73653 1.81178
-9.49707 -13.966 5.56683
-1.4527 22.5618 2.56105
-6.62273 -6.09264 -13.5617
-9.41375 -0.666566 -9.37233
12.1247 -7.14527 30.313
13.8361 -12.7918 5.44689
-5.28202 -0.463564 26.5842
-2.41775 8.46062 0.24309
2.63834 0.0194149 -2.13481
16.8179 -35.4911 -32.0321
-4.30922 14.6691 5.25863
0.65265 6.59206 -6.44152
-3.60238 6.11112 8.6521
-7.76105 6.01927 -24.3547
2.46739 -3.29543 -5.58008
1.18923 0.117971 -2.94518
-14.1311 -14.5843 -5.52283
1.8 7.09039 -2.90081
1.64357 -1.88834 1.58469
8.0371 37.7895 -11.5972
-4.54218 -16.3078 10.8199
-7.30522 -3.43835 1.87779
8.79068 5.76863 -4.97161
-0.629366 -0.262852 6.91675
4.47375 1.66681 2.74221
-7.13088 -6.25961 -3.34353
-3.04444 5.65974 -2.33883
-0.547748 8.841 22.3442
2.17917 -3.1321 3.60076
9.04596 -7.93237 -2.69639
-12.4066 -18.8487 7.78769
-33.3921 3.63675 -16.8963
-10.2868 1.35832 2.38169
15.5635 -3.12944 3.55671
16.0019 -0.635907 8.64702
7.01456 18.5174 -13.7897
-8.44824 0.0845624 -46.5378
-29.8097 -6.54137 25.1342
-1.63372 5.15202 -0.320154
1.47823 -5.61819 -1.23102
54.8692 31.4155 22.6063
-5.90974 -6.83809 -2.51112
-0.516513 0.320518 -3.25474
-18.6066 -14.6051 -15.3783
4.90368 9.55039 4.63249
0.39151 1.42214 -0.253651
-19.7819 -20.6305 7.16757
4.47212 3.63919 7.93734
-0.805604 10.5784 -2.58138
10.2568 -5.64658 -11.8092
5.15465 10.0423 9.33227
-1.65224 -9.86672 -9.76683
-17.8067 0.232788 38.3982
7.65275 6.35291 -13.4661
14.6485 -12.9815 -23.7449
-2.81452 36.0923 14.0565
-2.7913 -7.87143 -15.5478
5.11895 -14.7763 -7.87398
-20.9668 26.5688 15.1383
5.96472 -7.75659 0.972076
-3.74447 -9.50445 0.151958
1.56754 30.7187 7.35056
7.97049 -15.1342 -9.60671
-3.98394 -6.49839 -5.42469
-13.1226 2.47166 -6.18369
0.5057 -6.57639 1.5792
10.1323 -14.9736 -4.82529
19.4664 -5.98687 -9.83533
-12.3597 -3.06543 0.282536
-5.10134 0.726277 -3.15262
1.44906 4.08852 20.8331
6.63699 -2.824 4.32649
7.60291 -2.51134 -8.53299
-3.35829 3.84091 -5.94608
-0.488 0.0188756 -3.31329
-1.14846 -19.3649 4.51904
-2.68257 8.09451 2.75855
-16.0473 2.044 -0.367497
49.5276 41.666 2.17338
-33.018 -10.2102 4.11668
6.17588 5.25194 6.08839
7.06429 9.46508 0.553009
21.8941 -2.18972 -8.26085
-26.1739 -21.7753 0.473974
-17.8807 0.66655 16.3185
4.6692 4.57383 -31.0984
1.03259 4.08607 -0.207919
11.846 3.64089 -3.32458
22.6809 1.7451 24.7832
-17.8678 0.296442 -0.939056
10.0347 -0.401175 -0.0558043
-21.1117 20.4155 -10.7172
5.89259 -12.7163 7.51535
-5.86625 -5.73644 -1.84675
0.329096 -1.44225 6.64582
-1.47432 1.50383 -1.44871
-2.6353 -10.0611 -4.60791
8.77601 30.5797 -1.42776
2.16388 -11.4473 2.411
-4.66484 0.65354 3.84256
12.1097 -14.9714 -4.06376
5.82226 -2.74335 -6.00364
0.868691 5.72938 2.84209
-5.35019 -8.82929 12.9737
-4.0919 -4.66894 -1.70975
0.199338 -4.61958 1.05238
-1.4465 9.11358 -12.1007
0.704159 8.75252 -1.8012
2.60701 -11.9046 -0.69298
5.29228 21.5169 29.4534
-2.56313 -0.395741 2.25319
-1.29051 7.00248 -0.40445
10.1108 -38.5748 -19.7729
-1.84958 6.79552 0.65259
0.447349 6.90784 -3.91533
-2.2106 21.6901 4.07853
-7.00267 4.66968 5.30946
-0.259898 -22.198 -5.74166
23.6353 -3.03043 -32.5075
-2.61467 -4.11078 8.95115
-7.62379 3.53804 6.26378
-16.391 4.80173 11.5862
-7.1109 -6.78872 0.656901
24.0813 -15.9181 3.84702
-12.6019 7.30757 12.4854
2.67804 -4.63811 7.18512
18.0078 18.5942 -12.106
-63.9436 15.326 -12.6519
4.31626 4.55619 11.677
22.7489 -8.93589 -3.48915
-16.9469 1.82972 -12.1992
36.3605 -11.5125 21.5319
-18.9228 9.89286 2.38679
-15.6995 -4.20486 13.9999
8.06474 8.0893 -1.9415
3.84726 0.332152 -11.0857
51.6154 55.6901 -32.4163
-14.4161 -11.651 -1.50562
-39.6831 -37.0778 16.5368
-1.57264 2.12982 -3.71607
7.15378 5.72125 -3.42734
-30.5369 -2.44951 -2.1174
3.5693 9.74823 -2.27331
4.9362 1.28318 8.90712
15.579 1.2026 5.67251
9.88829 4.67471 17.2264
-7.67177 2.26824 3.85955
-5.66997 7.87998 -8.59348
11.366 -57.9387 8.45079
-2.76321 9.65328 -11.4415
-8.61215 9.56922 -2.87904
3.59423 -3.06535 41.5932
0.0529601 0.599896 -16.3155
4.09096 -1.8291 -5.60272
3.87596 -6.66062 -7.76308
-8.48171 6.03079 -6.88508
0.026575 -1.46557 6.23252
1.45299 6.09347 -11.9362
6.13067 -7.77395 4.25246
0.722315 9.396 -2.24285
0.389686 -9.76263 0.0802787
10.7219 3.56787 -7.92613
-26.3373 -26.1887 -6.63678
-5.13123 -12.5731 16.1646
-4.04126 -15.1929 -5.54929
12.2693 3.79598 -0.373588
2.91795 6.96156 15.3727
13.5528 -4.26883 -19.2717
4.79279 0.368518 17.3677
39.2522 -11.1991 -22.2365
0.15074 -2.03156 0.687514
-7.35862 1.23582 1.00583
-53.3968 15.7383 -11.1051
7.11577 3.17049 3.05723
-2.04452 -4.23969 -0.570537
-2.70789 -16.8819 8.75557
1.52887 2.6731 -10.0211
12.2621 6.85023 3.24816
-6.63953 35.4187 -8.04977
-5.11163 -15.7596 -4.39629
-4.59814 8.93955 -2.1236
-17.6336 -41.3659 16.4739
6.18627 -2.38098 0.969532
6.76678 5.27102 3.20846
31.0884 0.221773 15.6646
-0.811334 6.99843 -4.73395
-2.04564 -5.31383 -0.32023
-36.8903 21.8762 0.663049
8.57303 -5.32418 -3.02661
0.443822 -7.50535 -4.55224
11.7948 1.86654 2.81212
3.84921 -0.710214 -2.36166
0.720588 -5.57477 -0.418822
-10.0292 17.3326 -4.62106
-1.17819 1.68147 2.67009
-6.18085 -8.36491 1.09357
32.6631 15.974 5.71506
-7.12008 -0.79836 -6.72523
-0.876289 2.19787 6.4906
-32.8426 -13.4906 -9.63412
-3.65392 1.5751 9.38004
9.41568 -2.06021 7.42768
23.9184 -9.14528 -1.02399
1.87322 2.92618 -0.311853
-3.96971 4.65664 -3.78838
-30.1647 6.42266 -7.66741
8.96013 -13.017 4.68815
2.45229 5.23118 -2.02031
22.2789 18.325 13.073
-6.70498 -4.29503 2.39055
-11.3323 -7.21769 2.66201
4.86752 3.54101 -1.55666
1.20035 2.50361 -10.109
8.17362 0.478078 -0.633117
-48.1211 -31.8076 6.29571
17.1512 8.19305 -7.82058
11.0238 3.40203 -6.74912
-11.2538 -6.65263 9.86301
8.27043 -11.4341 1.61891
4.16277 6.95086 -9.38517
9.83089 10.7909 -13.5063
0.625782 9.47188 9.85828
-0.53637 1.73193 5.0716
0.728739 -1.89384 -1.912
-2.11612 -2.40014 -3.4215
-1.8233 -33.7052 -6.18698
-11.4905 7.21324 10.5008
6.35543 0.678489 7.92867
-4.21543 37.7983 -24.5053
13.8579 10.579 41.3643
-0.228696 5.96516 6.71014
-14.9109 -1.5378 -0.385269
-26.3163 1.84794 -44.6339
17.7222 -6.99825 21.0496
19.0479 5.59686 3.93502
-13.1184 -2.79391 5.52338
5.325 3.82792 -2.85618
-3.64541 4.77711 -3.42441
-10.4004 -29.1149 5.05055
3.79098 7.4741 -7.66411
1.41662 6.62326 1.66471
-0.310958 32.0726 20.9209
0.573712 -8.48357 -1.83843
1.10152 5.87621 0.129645
0.911148 -3.59523 -9.27266
-3.06279 3.80542 -8.59795
10.5654 -8.29244 -9.99338
-5.966 -28.9583 10.2325
1.10453 1.48834 1.32835
-0.895046 3.59121 -2.04955
7.8435 19.3259 -9.57383
0.148853 6.12697 7.66787
-3.01166 -5.71268 -6.44398
-0.293901 -3.04579 -1.42482
-7.6651 -7.70784 -0.512045
7.14124 -3.83922 3.04752
-4.58802 10.2688 1.92351
-0.191823 -3.50964 -0.780245
-3.89399 9.24166 -0.442328
4.72384 8.93236 32.0175
-2.62959 9.86373 4.08653
-2.8037 0.807499 4.11885
4.5654 -33.6209 -46.013
0.413336 -2.02345 3.55593
1.74662 9.1221 0.262904
19.1727 41.588 -20.8583
-1.83541 -11.1285 -2.89969
-0.416238 -4.85161 5.2776
18.1544 -15.3298 47.5031
6.70193 -2.98497 4.51253
-3.63426 5.47991 6.47734
-3.4224 -2.11395 -57.3059
-12.3046 -11.0008 8.75113
-3.80849 5.43618 3.16934
11.9674 -10.4498 11.9651
-9.84433 -5.4769 -1.31074
5.29203 6.5649 -4.84326
-48.3098 -4.86373 38.7463
17.9083 -9.59506 -20.382
-7.6445 7.45806 -10.7803
29.9031 21.2857 -20.7786
-16.1844 -0.371529 5.82702
0.26805 -19.6552 4.67516
6.92308 2.51834 -9.78073
9.77334 3.58676 6.74792
-7.21071 -3.48456 -1.25656
-3.37909 9.28313 17.7384
5.09085 1.18571 -6.27208
-8.28984 -8.33364 0.90744
-0.481838 0.175753 -1.10374
7.46158 3.26431 0.673217
5.1282 1.4065 -13.1188
-14.6949 4.84929 2.22533
-15.6572 4.09896 11.0347
5.23083 -14.3732 22.3203
21.8991 -2.10015 -8.98505
7.97495 -4.71421 3.1368
13.0733 -0.270174 1.89861
-12.7125 -0.142892 18.7003
-31.1084 10.0911 -34.1806
9.14257 4.86786 -15.6227
16.515 17.8977 60.0712
-2.64301 -0.877003 -16.0776
-2.43624 -5.6034 -10.8099
15.888 -24.5306 -37.2055
3.19287 8.34178 -2.1244
-8.26198 -7.21891 4.06856
-4.60688 10.7204 -11.4511
1.20319 -6.01156 -2.54484
-3.37931 7.43169 -1.70655
1.52311 -13.2436 26.1541
-0.0940173 2.36117 -6.146
-2.88601 1.82741 2.59524
-3.69064 0.990019 -17.7561
3.04823 3.46582 7.33805
-4.46329 -2.40997 0.629331
9.17117 -3.3429 7.67145
-2.23201 1.26886 -5.44443
6.02634 7.25609 -1.02844
-10.5015 -28.3539 -10.7816
-3.48474 4.87585 11.9924
-4.98151 8.934 -3.44655
9.06156 16.4752 1.52521
-1.55376 -9.06027 1.14397
-1.65151 -3.12046 -0.111609
-12.4045 20.1098 -3.0965
5.98644 -1.82396 -6.11217
-3.64275 2.78905 -1.18378
-2.83081 2.23075 4.83739
0.690372 -3.56547 -1.10477
0.265077 -3.73423 3.92056
21.1276 -9.32563 -7.61997
-2.79524 -5.68237 -3.35812
0.217692 4.45179 9.61642
-8.59967 5.07569 -23.3331
1.19712 -5.10788 14.0753
0.403088 2.30516 20.2616
-0.676818 -6.02525 -2.21933
-2.83611 4.58849 -1.45467
9.40898 -1.44815 -2.98471
4.63884 5.34185 8.05261
-2.55354 -8.94287 8.91297
-10.6008 -18.3665 9.9877
26.3253 9.22757 -29.0866
2.84057 7.05811 -14.3117
6.18553 0.596713 -0.0225128
-12.1896 -4.02123 59.6899
10.364 1.89348 -23.8605
-10.666 3.83865 -35.0932
0.478141 -6.07004 2.79938
-6.92678 -6.74873 6.20549
-6.15876 -4.95411 -0.2557
23.9346 -1.41598 -26.2237
-2.44 -3.96057 3.22799
7.1903 2.30488 1.40494
-9.97271 31.135 23.8708
-0.802737 -6.04619 -21.8534
3.43974 6.05777 -9.76501
2.76877 -8.25938 23.7907
1.55625 7.59016 -5.1688
-2.98389 -3.69598 2.55575
-28.9155 -58.4849 -4.5537
10.4956 2.70555 -3.99955
0.761864 12.9121 3.79818
10.8479 58.9974 28.9831
3.69121 -11.0782 -18.9534
7.26003 -5.27263 5.24269
-5.05655 -40.4389 -3.7091
2.04858 5.48959 4.81991
2.73359 -0.697755 4.65736
-4.94955 37.9799 -23.4108
1.06699 -0.794725 8.38638
11.4352 -5.75811 5.23923
-25.1037 40.5132 10.319
-2.98699 0.437811 0.957919
6.52993 -20.7135 -5.53511
24.5203 -16.9943 4.81404
-6.46587 0.623569 -7.88697
-19.3413 -9.64367 0.885537
25.4183 18.4841 -7.03967
3.16661 0.87186 5.12967
-10.4439 -1.24791 1.91316
5.69162 -0.389513 -8.96898
3.33795 -12.9414 1.18165
-2.9489 -2.39458 -3.52032
-9.00102 -6.41074 16.3183
7.72708 -6.15795 2.16865
-6.39176 5.67578 -13.8332
-3.8473 -10.4764 9.37284
5.28505 -4.80154 -2.8603
-0.0834863 10.93 -9.42963
17.978 14.5718 -17.7203
-10.6365 -5.81932 9.78713
2.36312 1.9749 -6.38607
-14.2579 7.54726 22.5967
11.9929 -2.69774 -4.19319
27.685 -0.471907 0.093016
-31.7837 4.77253 1.36538
-7.69702 -8.61333 1.43142
0.931675 -1.47669 1.36681
-22.9794 -31.8115 -40.0891
4.36157 -0.315685 4.92785
10.129 7.66682 15.0646
7.33775 24.5442 2.95991
14.1904 -0.308725 3.02395
-2.36388 -9.20581 -17.3532
14.1141 17.0169 2.29282
-15.4553 11.0313 6.1197
-18.5663 14.5578 18.8107
2.63985 -11.2958 52.136
-14.0855 11.1577 -7.55861
13.395 -1.49921 -18.2644
-39.4453 -10.3121 -16.058
18.249 12.7155 22.3179
-8.22919 -17.1517 -4.7824
29.059 15.2615 3.99033
-15.5038 -5.70934 14.8213
-1.01889 -7.69787 8.46596
-29.7768 13.2072 -16.8377
11.1773 11.2474 2.0033
-3.51912 4.9964 3.29486
10.4767 -25.5735 -27.4005
0.1482 8.01186 -0.791322
-3.35393 1.42734 0.588231
-10.4288 15.1884 33.249
6.19613 -6.05932 -5.99596
4.65268 -5.3282 -6.4271
-1.27602 -30.1501 -16.0441
-0.359109 6.15795 2.02106
2.00198 -2.22475 -11.1362
-9.79374 12.7723 10.0256
7.35557 4.7917 -4.52301
-9.23445 4.48138 -8.14637
24.694 -12.772 13.143
-1.94794 7.93744 0.208396
-9.74569 3.0216 2.09347
-24.13 5.74018 7.24369
9.72631 5.89289 -3.2189
1.98084 -0.261997 10.5095
3.3075 -29.4284 0.16232
-3.30402 -10.1893 -5.73169
-6.63714 -12.0828 -0.796707
24.8861 8.48415 -17.486
1.34777 -6.88054 -16.8246
7.09177 8.35028 5.33393
-13.8813 66.64 24.5662
-1.25192 -3.58613 -0.604099
9.08832 -3.48003 5.90884
-10.5345 -20.953 -24.8729
-6.32229 2.01201 -2.184
3.59201 0.377373 1.19837
-3.83812 -26.8266 9.86476
-3.56995 2.62256 -0.363282
-0.629329 4.16299 2.47279
-7.06124 14.5823 -5.90152
6.97974 0.261846 6.49724
-3.11057 -5.67112 -7.84824
42.6841 24.7512 20.5378
-6.03765 -4.94254 -3.04357
-11.5844 -10.1548 -1.02095
-20.3913 -20.7533 -3.69611
1.8359 -10.1363 2.14911
5.07215 -2.67208 -0.139578
1.3193 12.9041 -8.41451
3.4805 2.12787 -2.51215
-2.55624 -1.18668 4.7734
-15.1762 9.84342 3.50422
6.12701 1.3929 2.25926
1.68949 -7.63552 1.98115
3.80057 4.14935 -5.85227
5.72129 -0.402993 -11.7349
-7.52693 3.70757 2.61686
-1.62434 3.89522 3.56897
4.53602 9.38085 2.42595
-58.9454 -31.508 24.2298
38.1813 25.5066 11.8483
-2.9488 -10.5305 -4.38471
-3.51645 -2.20783 1.63476
49.9862 30.0859 13.5058
-24.7776 -29.2427 -40.3324
-14.7391 3.28219 2.91233
-3.00656 -8.62812 16.0071
-6.71286 12.4965 3.91636
0.875499 1.80063 9.04506
-10.5678 -51.3755 -55.4398
9.28394 11.0187 -3.52695
10.5194 11.7424 21.8365
-3.11334 1.51709 10.4845
12.1689 5.17673 2.95301
0.757824 -24.4212 -0.210147
-9.92167 13.7489 -2.43466
4.55191 13.2472 2.08148
-0.560392 0.79636 -2.73457
7.97644 -13.6397 -13.0926
8.55214 4.92643 2.7223
9.57651 12.2043 -2.16234
-23.4881 24.9998 16.2262
-5.11853 -14.5278 -7.82686
-2.2571 -2.78713 -5.16263
2.39388 -0.613569 40.5248
0.107286 3.98469 -8.66395
-0.844413 0.0978306 -11.2808
20.8312 -13.8006 -3.16162
-0.517022 2.44785 3.4581
-7.98128 4.04185 -3.28372
-3.66061 2.21478 -0.201037
-1.64885 -6.47768 0.497262
-2.99059 -6.47485 43.7911
5.47399 2.75655 -4.69468
-1.25517 1.04089 -6.48556
29.953 19.7424 -39.854
-6.92426 -21.8981 -8.76578
16.5873 8.41214 -5.21137
2.58899 -27.3583 -6.69891
-7.94 30.3714 0.796379
-1.43329 -25.1371 15.435
-12.6161 -6.55208 -41.5363
18.9861 -1.01993 26.8402
-2.74673 -7.09376 -2.5994
-5.95816 -5.29251 4.52663
17.4414 -0.95169 -31.8902
-6.5972 -3.52858 -1.33771
25.2172 3.02968 -9.28982
-5.0096 -5.03831 -3.55432
-3.43976 7.1366 12.1803
15.8673 4.67115 15.7267
-8.98541 -0.200959 1.91558
-8.3341 -5.85091 -6.58052
0.37696 5.58042 -2.00323
-28.6101 6.52823 24.6291
9.64421 -1.62872 -4.05582
-0.506542 -1.3411 -0.927387
-6.14557 -7.81737 4.38933
-9.82945 3.8478 -5.66282
7.70944 7.70656 -8.08724
-19.407 12.4655 11.191
1.55713 -16.236 4.81596
15.06 -0.0636872 0.120019
12.207 -5.3593 -0.570164
-1.82123 1.70777 -14.078
4.25922 2.09565 5.4463
-13.6595 3.03702 1.19945
-1.2611 3.76949 -5.12202
-18.3411 -20.656 -23.1155
1.92835 10.5053 5.3368
-0.43117 2.03554 1.27168
-9.61681 4.56392 91.3559
-35.2238 -0.19722 10.1307
8.6251 9.87247 0.747302
14.8741 0.958847 -0.968037
7.35326 -10.3764 -14.2281
4.2032 5.5968 -22.3381
-5.7484 13.2055 -17.13
4.66621 -13.4312 9.00278
-6.76606 3.52371 -2.6294
-3.09328 -3.45098 6.38435
22.1693 8.47809 -12.5236
5.42582 -2.50573 0.689911
-31.3337 -23.1583 2.10367
7.72269 4.78101 7.19489
3.58914 12.1654 4.21113
20.3784 30.631 -2.33906
-12.1433 -7.37368 -5.86538
8.40426 -13.3752 1.66407
-0.303504 5.71667 -2.36175
5.95332 -1.94351 20.9287
-9.04423 1.8616 -15.5037
-3.798 0.593017 -1.3276
0.932525 30.4864 -25.7948
2.10274 -18.266 -0.461252
-4.03978 2.12077 -1.86183
5.95674 -10.9297 18.9348
5.61671 -4.91406 -0.99214
0.286748 1.55594 3.89524
-11.2027 5.60516 3.17792
0.707323 0.537112 -4.35506
2.22955 0.719878 -0.33439
0.153869 -3.63263 -2.02115
3.86106 -7.00754 -1.88201
-28.954 6.96661 -5.12374
-4.60014 12.6356 -2.32625
0.263779 1.42297 -15.9012
53.4242 -12.9376 39.9341
4.34873 23.1321 41.0673
-4.20794 -15.1826 0.0582964
-23.0249 -8.89203 -10.9227
-13.8876 7.94443 -92.202
-4.09072 -10.409 48.1515
35.5164 -8.98978 0.451481
-23.0545 4.54432 37.7091
11.5995 -2.66297 -8.37188
3.80432 -9.10576 -14.0276
-0.461675 -9.52318 9.91764
-5.46195 -2.0282 1.65709
-3.32347 -8.28012 -6.93332
0.218572 16.2824 -1.81917
0.979963 -4.78124 1.14936
-1.30155 9.30774 1.37532
-1.9825 12.5161 -5.80653
4.56946 -5.88698 -3.48918
2.97892 -3.89562 -2.60062
-31.2421 59.0817 12.3607
5.34376 -9.82325 4.47406
-2.25762 -5.66769 -2.12633
34.6137 -38.5479 -14.1401
2.70421 3.4525 -2.10089
2.76835 -3.41995 3.93765
-8.30475 -4.02858 -3.56106
1.96982 -1.30916 0.71166
4.43059 -4.16381 -6.4649
-19.0988 9.90039 11.7303
-0.742032 1.90601 1.115
0.655096 -1.3202 -2.41231
20.5784 1.80008 -27.1679
-3.93959 -15.7205 2.29704
12.0919 -2.77325 8.21245
-40.1745 17.4678 -1.33311
5.52711 11.0689 7.99527
1.94354 -2.02214 0.250369
-3.21755 1.75545 18.8064
-1.33855 -3.29882 0.0476281
1.89119 17.7945 12.8225
4.27199 -22.7624 -3.73847
5.95118 -0.33498 -4.00768
-0.881306 -4.82871 -8.49447
6.40245 2.06655 -7.8692
-7.57786 4.21662 -12.4757
54.063 -6.24624 5.58173
-13.5229 5.1386 -7.23461
11.1394 4.06555 -2.38916
-66.4744 -19.2501 5.31887
32.6193 22.1031 -20.6212
-3.17503 7.30867 -7.06745
9.02225 0.244935 -2.39986
28.4547 -0.668425 61.7898
8.17938 -4.73445 -33.57
-35.6327 14.066 -71.6862
7.98971 -2.31827 53.0519
7.78147 1.86543 7.27983
4.36758 -0.25341 -0.0431702
-27.2954 14.0131 -14.0729
10.0783 1.74209 10.6148
-5.33754 -24.768 19.6534
-0.400762 -0.679394 -0.881502
-4.23725 -4.2542 -9.11203
10.1386 26.1305 4.24593
-3.9733 -11.1294 2.33215
2.36428 -1.07014 0.258242
-8.66098 -1.77872 -2.22934
36.6735 -9.88585 6.18244
-1.89089 5.92684 -4.32354
-11.0473 5.95567 0.750114
-10.2407 14.348 -0.90313
10.8169 -1.83285 -4.93085
-6.03291 -11.0981 -1.76259
12.6673 10.7163 -8.08448
-12.5415 -9.28752 -1.94508
4.11258 0.839841 3.44094
-0.847052 -21.4883 -16.728
-1.41315 -0.374362 1.80948
-1.77821 2.90331 9.01516
-8.86386 8.80955 3.85268
9.48232 1.91224 4.1352
-12.8868 11.8725 -13.9306
-3.71432 -12.3627 3.19037
-10.8992 -0.510309 -6.39821
6.37102 -15.9526 22.7679
0.227407 13.2652 36.0306
-0.273577 -5.29731 -24.7971
0.486127 -7.12496 -0.981306
-23.5955 27.5401 -58.4608
18.1725 -11.3404 17.7951
-8.15516 -16.9494 39.9638
-29.4315 2.47778 4.43987
3.7972 -4.63568 -9.96519
10.3097 3.83253 -7.02918
33.4295 36.9188 -16.9863
9.42452 -2.13904 -0.152218
-1.2794 -11.9581 -19.3463
-0.709849 -2.18499 -1.05765
-3.57247 -0.911974 -8.40399
16.2282 9.56661 24.9933
-7.98102 -7.58279 -2.68522
-6.73007 3.02543 -0.987745
12 -3.28884 6.66062
-35.1633 -32.1025 39.855
-4.90485 2.38467 -11.5026
7.9502 11.5036 -7.01321
-9.27204 -9.66702 -3.33957
5.28023 2.36411 -1.00018
-7.00447 4.57302 4.15115
41.0935 10.0568 -13.8023
-3.20482 2.76938 8.62462
-13.2949 -5.68927 11.0251
-18.5186 11.8466 -14.4064
9.84551 -4.52488 5.03326
4.85381 -8.27476 1.55149
-6.00665 1.2163 1.85193
-3.66261 5.82467 -12.6969
-29.0197 -10.822 18.7582
4.64156 5.651 -1.45259
-5.81829 1.76936 -2.43602
80.8666 -26.7565 -71.0913
-49.1472 -2.47192 31.0861
4.73801 -7.15308 -9.14119
-15.0036 11.2902 24.6926
45.1322 -19.8122 31.0278
-35.1895 20.7886 -16.9592
2.36708 -1.55756 8.44337
-0.978307 20.5547 -8.35665
-2.02671 0.30732 0.0217079
-1.23614 1.98944 6.79593
-14.2297 -37.1855 -27.3034
-0.00321081 5.92127 15.249
-0.356252 7.0413 -2.4485
60.9566 -2.72066 6.11746
-2.03841 -3.97318 1.16795
-11.1686 8.38956 -1.26976
-74.0922 -29.5679 -2.28829
14.1 14.8512 2.00551
10.1198 5.56065 10.5559
6.08051 -4.34376 -27.8505
6.59743 4.62082 16.3574
-0.774175 1.56495 6.06274
-15.6031 10.8964 17.4941
-0.231314 2.00408 -2.45916
7.70796 6.16061 -8.98649
10.4977 -16.0376 -32.4704
-0.439446 8.9223 -1.8959
1.90151 2.97742 4.82012
-5.42118 -33.1236 16.8228
-2.8914 6.02692 2.22905
4.39245 -1.0301 5.56189
16.451 39.3177 16.2927
-5.43448 -0.473857 5.6515
5.30378 -10.1397 0.0861485
-18.4272 -22.3364 -48.6581
9.17104 -6.6208 7.15235
-7.17864 4.88004 12.5793
19.7727 30.3851 -21.8277
0.354233 -15.5376 -1.32801
-11.8111 1.24686 9.28837
-0.916519 34.4656 41.1112
4.80491 -1.90711 -4.91351
9.46923 -3.31315 -9.57847
-22.7529 -18.8138 -3.50136
3.62499 -0.377192 1.83881
3.88616 -8.41774 0.540035
-13.5254 -10.3192 -20.9999
4.91501 2.18855 11.1808
6.44202 7.47553 -3.84469
1.16815 12.1314 -5.37712
6.35283 -3.64899 0.661598
-10.897 3.91571 11.2037
-3.40932 -15.4791 -7.88316
-5.55773 -4.49798 3.31877
-5.83269 -0.0396382 0.058081
23.4165 8.53717 -4.06567
8.34092 -1.40361 -3.39311
3.48142 -7.49011 -0.355684
-36.1183 5.92607 23.1143
-0.751128 -2.85905 -1.96554
10.9523 0.0462921 -7.15916
9.65416 3.34899 0.303919
4.33438 0.517204 5.60157
-5.09086 29.0644 -12.9785
-1.33082 8.90564 1.31653
6.01753 -2.94469 -3.17317
14.9518 -29.1571 4.01005
-57.8911 -16.3064 18.8042
26.2166 6.433 -14.5785
3.58523 2.73231 -0.672566
16.4799 22.3496 -19.1985
7.02965 3.79111 -2.33477
-6.48489 -14.425 22.8541
-32.0514 -11.5843 14.7723
5.5512 1.45823 -7.19746
11.5882 1.75707 7.65475
-14.6834 29.079 -33.7728
8.89 -7.09893 0.828582
-19.3967 10.5977 4.04901
0.0110682 -4.70696 1.1087
12.1205 -7.16015 -3.42457
46.2616 -11.5043 2.27644
-5.69704 9.21106 -3.51325
0.839921 -9.99152 -1.00849
-11.1156 5.26639 6.02623
36.0179 -2.88224 -43.5422
-18.548 2.24077 14.4928
-3.98542 -2.99047 7.94776
-19.4699 12.8778 -0.459158
6.03953 -16.5998 3.74567
-4.77906 7.36452 12.5566
7.71185 -2.01311 -39.2133
-3.16996 -3.68319 13.399
-14.0786 0.603089 16.0448
-2.33872 12.0013 24.9113
-0.703431 -3.3455 -2.25495
4.30854 1.013 -1.95624
-0.0252511 -3.29265 -3.15883
1.8455 0.0508372 -2.50706
-4.78094 17.0022 -20.2212
-5.60666 3.09022 3.34198
-0.560138 4.67205 3.29279
-1.84972 23.0435 1.51752
-13.4154 -16.1641 -12.361
-4.37961 2.21231 6.54447
3.2198 -1.9679 8.1942
15.5543 -31.9533 50.2547
1.4269 1.86285 -5.95102
8.47586 10.3942 -13.5282
-9.0753 -3.85046 -4.16386
5.40993 0.609764 -7.53945
4.71951 1.87878 3.03887
-33.6699 -8.96509 38.7206
0.14816 7.14442 -6.64634
7.90975 6.95914 -0.642071
34.3878 3.00282 -5.12659
6.34542 5.61486 0.829753
5.08883 1.60327 0.109539
-36.7213 -19.8124 -42.3888
8.83989 -5.42421 6.96605
-2.03407 -3.59501 1.82814
-10.872 17.4919 41.4557
-3.7183 8.94125 -14.2364
9.13637 0.653264 -3.48977
31.8538 -44.1733 4.74083
-21.397 11.2326 -1.14042
0.963226 8.47303 3.60643
-0.612383 40.6236 -11.9619
-3.85337 -5.53048 -5.61882
6.4546 -9.16142 7.30158
0.159756 -19.0693 -5.24515
-2.28793 2.09681 -0.919206
-1.66068 -3.22333 4.87693
0.242945 -6.72328 -69.0465
-3.65744 6.47442 16.6915
-2.32626 -6.6883 25.8295
31.5081 -15.3415 31.0611
-6.7079 2.95835 4.48212
0.0709729 4.59044 -13.838
-21.3423 40.9303 -3.34726
-5.27694 -2.67419 4.07992
2.34475 -5.27114 -0.166407
13.9416 -51.225 -31.3651
4.4008 2.29682 8.47553
8.92236 11.2543 15.5687
-22.7085 -10.8397 7.05691
-7.65597 9.67587 -4.85917
-6.97252 1.52508 -1.79421
27.965 38.2794 16.2121
-5.39455 -8.13341 3.19856
-2.26369 -4.91269 -2.33314
-6.49106 19.8304 -33.8029
6.01404 -3.20845 11.7824
-12.5906 -8.00214 2.00237
16.8293 -21.2226 4.08399
-5.60885 0.999507 -6.89751
3.07342 1.74324 6.83457
-9.92033 21.1298 3.42748
-3.16828 -7.81903 -1.5525
2.32179 -10.8426 1.21378
15.8876 9.72214 -1.72871
2.16924 0.0957365 -1.56618
-5.14753 2.89664 2.99204
-6.40221 -8.22664 0.666553
1.23671 -0.42423 10.4317
-1.35488 -16.0857 24.627
1.53641 -4.14118 -4.93933
7.98937 -0.90079 -1.3986
-49.6122 17.1666 -28.1167
40.5512 -21.8043 -10.7978
16.7568 -10.1017 4.89428
-2.49371 9.3708 3.59653
34.6322 -13.9015 -28.5409
-1.92329 5.03055 11.774
-52.2127 6.96381 23.1166
11.1198 -19.8723 4.31729
-9.96432 4.93911 -3.73032
3.52788 7.83124 0.986546
16.6014 -2.55197 -40.2184
-11.735 2.37519 8.29937
10.0227 11.2243 20.0556
3.81899 -14.9771 -14.8195
-2.53471 0.721397 -12.9756
-3.18735 -14.6809 1.96975
2.9669 11.4014 0.408419
9.42982 -3.20863 -1.34943
1.99496 4.4107 2.09046
-54.0759 54.2419 -5.5982
11.5416 -5.22746 6.931
5.52746 -9.27886 4.71672
16.4574 -36.1959 -3.31642
-5.17403 1.37803 -9.3793
-0.28092 3.41182 0.226028
-5.52766 6.44192 17.5096
3.97451 1.80356 8.56914
-2.76541 0.355912 10.125
-8.8071 -11.7393 -14.3948
4.96104 4.80148 3.27779
6.55312 3.65482 0.786956
7.1988 3.15026 -1.39816
2.07419 4.97753 -3.95206
7.14948 5.21463 -29.623
-0.68792 2.34671 -6.50801
0.627256 -6.03528 4.28348
6.50355 43.8434 76.2186
-26.3825 -46.7399 -30.8758
-5.73603 0.365896 -2.64688
-3.48978 24.5429 12.1773
20.7817 -6.4663 -36.9533
0.562033 5.76907 -6.19462
-3.71475 1.18945 14.9475
-4.26128 -12.2206 -2.8917
-2.56416 2.08378 3.57155
4.2942 9.12038 1.61895
34.6355 -3.96687 -12.1074
3.3813 1.99721 5.1626
-15.1791 14.5532 10.6035
-27.8958 -13.2055 -19.2071
12.7111 -1.21192 8.37281
5.37143 3.78503 8.97396
14.4109 12.0602 -20.5584
-6.5553 2.39672 1.23314
-4.59711 5.83246 -0.474084
11.8385 -33.2154 12.8564
4.03903 -7.45437 2.37324
-5.09962 12.775 11.0891
-34.6586 -9.58639 -6.66836
14.0594 3.38316 8.94553
-7.38055 6.7507 -2.93192
1.8614 -1.48999 0.924016
-3.81231 11.2452 -7.66486
0.252909 -2.59182 1.72377
25.0259 6.6717 -18.5104
4.70064 3.40354 -0.4406
-9.55877 0.859743 18.2894
-20.0344 -20.6338 -30.528
-1.82355 7.00566 -6.2261
7.95267 -6.51619 6.92132
-6.37201 9.81079 30.3591
-2.22034 -8.25806 -10.7164
12.538 -6.98977 1.93572
-13.3054 21.1732 3.81319
0.1534 -8.34042 0.942011
7.95344 0.406803 -8.45177
16.7258 12.9285 9.93076
-2.07598 -4.15463 -4.38654
1.72862 1.9674 0.33402
-17.9865 -39.343 -34.6423
-2.56674 0.0120507 -0.139139
2.16306 9.49425 2.90466
38.0447 22.0091 13.4806
-3.48877 -4.65474 6.55705
1.54974 2.34378 3.87506
-47.1918 9.73708 26.4492
-3.20741 -1.78722 -11.7857
5.78852 -4.27398 -3.44093
-19.0682 -16.2694 -30.4588
16.7144 26.5922 -0.338545
11.0688 -10.3506 22.3712
-21.9771 -27.7975 -31.2872
-1.49184 4.20142 11.61
13.1419 11.4932 2.86612
12.1757 -4.74465 -5.38825
-5.24322 5.16675 10.7548
-9.66561 0.726179 3.92574
10.1065 6.40295 5.16779
5.45613 2.76153 -11.0558
5.20647 -6.20142 -1.36712
8.40688 -5.4218 12.2203
-1.046 9.17948 -2.59133
-68.7183 23.0442 43.2454
7.34814 -11.5867 24.2808
32.9512 -10.4084 -21.0227
10.5036 -3.8305 8.30142
-32.0811 -35.6029 4.32583
24.1597 9.34635 -9.13743
0.0356489 17.3863 -10.3563
-31.2975 -12.032 -7.57136
-0.098372 2.78332 1.13374
8.25028 1.53587 5.48598
32.0875 -24.4746 -33.2583
-1.17076 2.10006 4.06972
-1.52079 26.4834 -17.824
9.14868 -11.7605 -6.08286
11.8039 -15.6414 13.0424
-33.9244 3.94998 -6.9753
11.3675 -4.35599 -1.38675
-3.099 -8.84698 4.22983
-5.95956 0.95798 3.782
9.58599 19.4436 59.1374
-1.68626 7.65051 -8.63175
4.35308 -1.87568 -3.33824
5.79722 -3.83941 -27.132
2.17795 -5.59879 12.6866
0.383245 -3.0049 -11.9654
-7.404 10.8173 9.49133
-1.97051 8.32356 -12.0662
0.800899 6.77748 11.5092
-5.38006 -37.2653 19.6968
7.7868 18.165 -7.14739
-0.916173 15.0571 -4.37666
-2.0509 8.21597 -17.8484
1.09464 -10.0744 2.3522
-20.3188 11.4778 18.4384
1.10046 10.2825 3.86539
8.87197 -5.14985 -11.4992
25.1588 -2.45904 -50.758
-22.2291 5.85791 -27.3508
-0.899806 -2.39617 0.0971545
4.02775 5.57697 4.6213
-22.9342 -8.38463 52.2373
-1.95938 6.23174 -36.0208
36.7953 -9.0398 7.93661
-10.966 10.911 18.8958
-0.594717 0.775903 -9.08468
-6.96828 -2.40531 -6.41852
-17.433 13.5226 -11.1078
5.90052 3.85605 7.67145
18.903 0.438876 -11.6456
14.0598 -2.07765 43.1229
-3.81085 -4.15225 -2.8965
0.509964 -1.37101 -3.58948
-37.2808 -16.648 -16.5911
3.4986 3.18932 2.92965
-0.471754 1.01886 -9.12295
45.8488 -4.36414 27.1657
-14.8025 0.66479 -23.7248
-15.0642 7.88921 0.339296
-4.78678 -6.32411 -10.6271
6.9934 -2.22973 -5.72782
2.12135 4.19235 -6.43825
-2.90014 -7.92548 10.0681
-0.993165 2.38083 -6.90465
-0.0260576 4.73756 3.99177
-40.4141 -10.8416 18.4854
11.8218 -2.49679 -8.10296
0.0181892 1.54382 0.102008
31.9358 14.2361 9.61386
6.80024 -4.92167 -11.8025
-9.04779 -0.243141 5.82834
-15.0076 6.86602 -17.2098
-0.699921 1.11527 -4.01218
-3.02016 -7.03417 4.49704
28.144 -5.59096 38.0586
-1.70244 1.21845 -10.376
-0.602329 1.49376 -1.09575
0.618721 -7.21923 -7.54275
-7.86224 -0.838243 0.308718
0.0202446 9.16665 -6.52745
-6.24896 0.785014 5.38587
-5.49817 5.20374 -8.21841
-50.9147 -8.43313 12.8626
2.1615 -0.0351319 -2.44867
16.0888 -1.50707 -7.87995
65.6822 5.842 84.7688
7.68396 61.1398 -59.6443
-18.1803 0.570409 -6.9057
-0.980185 -9.37718 7.35658
-13.9466 -38.8285 -6.49135
-21.0873 14.8431 -10.4622
31.8573 13.5592 12.5346
-16.826 -11.451 -21.8382
1.4093 1.15661 -3.25198
-5.04189 0.424573 2.35965
38.5128 13.8802 34.3817
-6.49689 0.747793 -13.6761
-0.776161 -39.4454 30.0713
-2.83511 11.2832 -0.0153399
-2.66425 9.53956 -8.73097
14.4984 25.5628 -32.9359
-0.0333951 -1.66746 -4.80024
-3.50449 -6.72031 -0.271422
-4.03913 -8.7955 15.8856
-17.3523 1.93994 11.8986
12.1075 9.83256 -10.6031
-9.02653 -6.22315 -4.89051
-26.1984 -5.99007 -9.75423
2.04886 1.82229 0.989783
-3.07444 -0.889306 -2.51904
60.8287 15.3256 44.008
-14.6824 0.116344 -14.8921
-13.9102 0.24988 1.02028
-14.5425 -16.836 -20.8703
0.432157 2.23146 -2.57629
11.2243 2.1874 6.267
-3.52115 5.6417 9.92651
-4.20165 14.9332 4.06418
-28.1337 -5.88836 13.9723
-12.1595 -2.33513 8.27645
15.7662 3.81017 -10.3797
21.786 -59.1211 -27.4048
15.4079 6.05281 -7.22665
5.26386 -12.0376 3.92295
-23.1382 -6.28792 -11.7717
60.8206 10.1467 16.514
0.291698 8.11261 0.147766
-37.8432 -23.5379 0.422927
20.4797 15.5729 32.2608
3.24075 -0.274248 -0.584797
-2.47933 -3.10403 -2.33391
17.4856 -47.0165 -0.524296
2.38335 13.19 10.1228
13.8973 23.2353 0.923528
-4.01479 3.92257 -6.73646
-0.901567 0.990716 2.14528
-61.1149 4.43039 28.0672
18.2088 5.19268 -17.4297
19.1586 -4.66922 -1.13298
-0.585072 -0.294463 -4.75691
-39.2335 -25.1652 -12.0102
1.72753 0.149799 2.09349
4.02546 -4.83267 -6.17914
19.0106 31.5053 5.59744
-5.49621 2.61125 -13.2848
-10.4462 -6.01467 3.45188
-0.261798 0.216083 -28.1612
3.92464 -2.92495 2.94645
9.79066 -3.94307 12.4678
9.33901 -1.3384 0.153855
-3.17798 0.111102 8.80585
-0.792389 -2.15352 7.65019
-4.41708 9.94216 -7.84826
4.13184 3.88953 2.43583
-10.6166 -17.1655 -36.972
6.5518 -1.99974 2.08265
-3.51605 2.61497 -12.3543
6.77876 -6.10991 16.1162
-76.0946 -5.8895 6.6965
14.207 17.3113 -2.14383
5.09126 0.508941 2.46917
46.0722 22.2906 -23.9923
-40.3308 -7.79896 42.3276
-1.67939 -0.689397 3.7298
-0.135919 -6.06828 -38.647
4.63884 1.48686 1.79654
6.12201 5.23027 9.79556
-12.7923 6.79265 41.8025
1.26716 -5.12263 -15.2563
-2.48995 8.24801 -2.90618
9.58631 -14.3909 6.44902
-18.0314 5.79504 -2.09686
-1.22631 -1.74889 -10.3605
-4.01826 11.2813 40.8859
6.5008 -6.00308 -5.00048
4.64243 -4.97844 -6.28413
11.5879 15.3817 -41.9372
0.559407 -4.51267 0.171417
-2.66939 -9.60852 7.46049
-13.4368 19.2919 -2.22507
-1.89832 1.75501 6.94128
4.17491 -5.7062 2.56959
2.99959 -6.11194 -31.423
6.50834 -7.3688 5.46301
6.31146 -6.36947 -4.31165
3.47433 -22.7666 30.0595
0.731873 -0.540648 -7.80503
-1.54343 5.20395 16.9606
-20.4026 22.6079 -19.3921
8.28258 6.50628 10.095
8.83586 -2.57078 -1.93834
-9.79385 -8.11353 -19.5293
1.36753 -6.18302 -2.17902
-5.62273 0.250715 9.79747
25.5609 11.4388 3.28266
-3.61435 -2.14254 1.73135
-14.0841 -1.99389 9.39608
-9.25641 6.17233 -11.3429
3.92411 -2.68485 -3.47287
-1.86764 2.20376 5.41354
26.2697 11.8498 -1.53091
-3.15759 -6.00895 -4.10664
-9.03037 -1.0695 1.08327
-27.224 0.815622 16.8464
6.29735 0.925439 -8.2204
9.60248 0.435643 -5.11692
-9.83965 -12.6566 0.466283
13.1472 7.90307 -8.4572
-3.97291 -2.55621 3.78848
11.3784 -7.01529 13.3362
4.12503 4.58105 2.25132
0.277054 -0.419808 -3.344
-15.1289 12.6967 -4.45516
3.63925 -0.354885 -4.55501
0.648983 -8.66176 4.59289
-16.0144 -16.0607 0.434863
10.1983 9.55116 7.97837
-2.49513 -0.867145 -7.76132
10.9288 -4.27 -9.48617
4.72962 3.51015 -0.849788
-35.8674 -11.088 9.87646
-4.32063 9.0202 -0.298256
4.94293 -4.86475 -6.5797
77.1073 -3.47571 29.8511
-31.7809 8.60225 -39.8909
7.90625 -2.93997 4.18319
0.707276 10.1711 4.77426
12.6329 -47.0604 12.3479
0.853971 30.9329 -32.6088
6.5923 25.669 39.2821
-27.5312 -20.9305 -4.49068
2.76487 1.73023 -3.08021
-3.91838 -3.45346 -10.524
11.9346 14.091 7.6577
4.00254 7.85233 6.21535
-8.29096 -19.875 -23.2901
7.55917 7.2416 3.1519
14.2766 14.5101 2.59499
-9.94678 -17.2319 9.5954
0.819112 -3.43503 -1.50217
4.26064 7.28285 6.27266
-9.38717 5.50111 -0.776301
-22.2766 4.29521 -22.3613
4.12203 -8.66953 -1.70035
-1.95457 1.994 0.742249
32.2822 -18.8232 19.2998
-9.53282 10.4821 -2.24871
-5.02226 8.13949 -2.81563
-15.3774 -2.38819 8.39489
7.93637 -6.19685 2.52262
3.62615 -2.03102 2.18199
8.97106 9.81274 -25.7429
-6.77879 -3.06431 -3.58581
5.87051 -0.212715 11.6281
-8.61358 -2.16419 2.00058
3.15859 1.70675 -6.13751
-13.1057 17.6274 15.956
-0.102004 -8.91505 2.48451
7.56522 9.44631 11.4102
-17.7628 -2.85003 5.66327
31.6732 19.5866 -24.7086
-3.45118 4.24896 11.4466
4.44707 -7.73517 -0.672851
-16.3882 -16.2076 -24.2071
-14.3495 -0.179798 -8.92878
46.9456 3.41004 53.7036
-11.9495 -23.1019 -30.9344
10.5266 1.12423 -0.963536
-3.13981 10.3221 1.0914
7.11311 3.61539 9.73684
1.3094 1.76899 -6.21876
5.56379 -5.65387 3.53795
3.93805 12.3177 15.1901
-4.25881 -5.70556 -4.95658
-3.7883 -0.908458 -13.0759
-7.17041 10.8882 14.1777
5.82236 -2.78387 4.50205
5.93143 -5.5856 8.78366
-19.3802 9.97086 3.22233
-12.3378 4.0756 -5.49387
-3.44639 6.87432 -11.7511
-4.8207 8.09484 -27.9511
-1.22169 -6.65782 -1.00554
7.84435 -8.92802 0.429204
28.7824 -32.3129 18.2575
5.94501 2.58549 6.65219
-8.36733 2.37693 0.49968
-2.76163 26.914 -28.181
1.44 -12.8749 -2.85587
-1.0137 6.01968 3.93191
-5.72268 -35.5981 6.33031
-1.01335 -6.29657 1.96197
-3.21393 -2.17547 9.97815
-18.3414 28.406 -1.26492
-4.62548 0.31677 3.05773
7.76531 1.41787 1.23331
13.9758 27.7736 7.00136
-17.6156 5.29867 -3.93992
-5.50516 5.71779 3.76235
25.04 -45.0469 -19.6146
-6.74899 3.74117 9.41586
-0.725257 16.8302 8.78147
-4.88833 6.2051 -2.05569
5.61857 2.37777 -1.44128
-19.2531 10.9772 29.3483
1.62228 -0.6755 1.60314
15.7039 10.7724 0.907833
10.4062 -45.9719 -14.608
25.1535 34.8861 11.6625
-3.3554 -16.0084 -2.44812
-8.795 -5.6207 -3.44423
-17.5917 -7.1898 -20.5961
9.40724 1.17586 8.94334
-0.705192 1.24368 25.7169
-28.9916 5.14114 -24.6726
5.17289 -8.31657 -8.7323
1.92361 0.450688 -7.59346
11.3926 -28.996 31.4038
3.30171 3.55858 0.907616
-3.05121 16.8323 -23.61
1.21703 -0.313684 3.3044
4.17713 -3.69658 -0.777223
-9.27422 -2.74078 13.3203
6.45144 -2.0709 -1.02214
2.46872 -1.1102 3.45464
-2.44442 -1.30652 -1.88793
-10.5537 1.45692 0.586537
-7.83748 2.0926 -2.98516
6.58406 15.3695 -7.65644
1.57584 18.1872 25.6173
2.21772 -5.66812 -0.334832
-1.11231 -0.522196 -5.22727
-4.25661 -7.37351 -22.6539
5.58441 0.513225 13.0344
1.34095 1.72058 -0.573288
-11.8619 6.30967 1.33001
6.66086 -4.44692 -1.81078
4.81242 -2.32914 2.27966
-0.112888 -2.21169 1.76538
-3.6347 3.93171 7.05443
8.98184 4.47461 -17.2952
1.15155 0.409669 -0.442251
1.33338 -2.99213 6.80302
21.9318 -13.7901 -43.656
-32.2262 -11.8868 32.572
2.33673 14.7304 -12.6349
11.0638 -12.1111 0.333905
-83.56 10.5672 21.0703
18.299 1.64916 -1.42299
30.0273 -5.27087 -15.2549
33.4163 17.6141 -18.4882
1.75822 0.551225 3.3466
-0.263405 1.43961 5.73942
5.11148 -33.8854 42.6303
7.19645 -3.81886 -16.4118
-13.0392 11.2943 0.00252818
-8.86751 9.11662 -8.73117
0.621326 5.4584 -7.899
-15.1324 -3.71814 -7.33031
-16.8604 -29.9897 -1.82924
6.70026 10.7098 9.26111
-5.85707 10.6762 -3.07824
-18.6864 49.0344 13.3876
-4.32138 -2.9915 -0.919238
13.9161 -8.68982 -0.294931
-27.9298 -26.2891 -8.11254
9.9437 -2.48987 -0.583983
9.6292 6.35457 -4.25869
22.5549 -27.1805 29.4218
11.9284 0.392177 -10.4716
10.9172 13.5549 -3.73011
-19.8821 25.4089 -6.76248
11.9089 4.06491 -4.29417
0.0582024 -5.07523 -0.4013
-21.6805 -13.038 -9.31723
0.524497 -2.16903 -1.42926
5.38553 -3.43298 -4.69507
13.0823 5.74071 0.639592
-2.35234 11.8946 -2.54942
-9.10309 -13.1813 1.57
14.3091 20.583 30.7628
-0.667461 -5.93446 2.6805
1.08353 -4.23617 -7.46618
-2.53274 -16.283 -18.7601
-0.738263 -7.38007 4.41138
2.63645 12.5861 -1.9837
-9.56467 -5.36492 5.1098
1.59434 -0.0103502 -5.26069
-4.30335 -20.3844 7.23741
10.2006 5.98113 -1.88583
4.47024 6.60852 -9.70298
-13.2686 12.73 6.39729
19.0238 -38.8178 7.21733
-3.93685 14.6348 -2.62924
5.86458 5.91157 -5.88727
-24.5136 -13.248 -12.8439
-3.50497 14.725 13.5366
42.4238 20.1473 -0.283248
-33.586 -21.9075 9.28808
2.77747 -0.880582 -6.44879
7.6544 9.79012 5.98492
27.9637 -0.647386 -1.43499
-14.2043 -3.65445 1.0657
-3.72588 -5.60415 11.0895
-8.08044 11.3934 -28.0761
6.02902 -1.5998 -4.0681
0.760431 -7.31876 1.87558
-5.00287 10.8184 55.7557
1.20051 -1.92769 -10.8261
0.612963 -1.14676 -5.33502
12.7297 7.90531 -44.485
-0.990126 4.72397 3.80277
-0.0250068 0.234651 4.77513
-23.5497 -7.93885 29.9642
1.72233 8.14768 3.06136
-0.50924 -4.14173 -2.30167
18.7353 -0.501149 -44.4775
-3.56109 0.906459 6.3224
4.95615 10.2994 1.87136
5.34956 -33.8893 49.3699
3.84345 3.97597 -4.79669
-1.57026 8.875 -11.7833
-9.35784 8.65797 -4.36639
8.94196 5.20564 -0.147493
3.52854 -16.1995 1.37213
-20.783 -3.27872 -27.322
5.17591 4.86327 -4.26377
0.689261 -4.83958 14.6314
-8.16612 -7.39181 -14.1636
7.04227 -1.37163 -1.41406
0.235491 2.61386 0.411025
6.3801 17.8863 32.3704
7.56355 -2.00064 5.51958
6.65264 -7.88752 1.77999
3.69432 2.48554 11.7818
2.55828 -6.76205 -10.122
-8.32238 5.07378 -5.17847
-5.79379 -9.8725 -30.8929
-0.0233925 3.00202 8.48006
5.39611 11.1183 12.757
-13.4819 2.00139 18.8476
1.84665 -4.5286 -5.42061
-2.54269 -3.84891 -11.2199
-7.22552 -8.71604 -43.687
8.12506 2.79872 6.81479
3.93713 9.75906 12.4491
6.81603 -22.5725 -3.727
0.80247 10.7224 6.54891
-1.39076 12.7375 -0.429397
8.05353 -26.5992 34.4955
4.26821 7.27546 -9.02287
-2.54597 13.1965 -7.80904
-12.891 4.53269 -4.54092
-4.99244 0.0109727 9.70986
12.516 17.8063 5.28695
-15.3905 1.84626 -12.5426
1.87499 -3.81229 -0.260976
-12.8535 -27.8948 6.02288
-42.0038 -22.3093 -50.1636
-4.68848 27.4308 2.32617
1.90742 4.6688 27.3421
17.7864 34.5388 8.63107
-0.917245 -17.1607 -11.3564
19.7359 -16.779 -17.8783
-9.64792 11.2635 -17.1733
-0.937624 -2.33294 9.10985
-6.31016 -12.6762 3.76963
-12.2051 -1.62967 -25.747
-1.51542 2.70848 10.9783
8.51569 -9.06407 4.44476
29.4641 -18.5163 -29.3919
-4.77336 -1.54897 7.89865
3.98162 9.15728 4.97354
-42.1622 8.88963 32.1971
5.48881 5.01618 -0.184674
-1.42758 3.87773 4.51383
33.5509 4.14707 -23.6884
-4.29679 -0.10041 3.04133
1.26321 1.07833 9.94077
-4.9063 18.1152 -0.545017
-7.95001 -0.498603 3.42988
-3.09442 -2.22786 2.84177
12.6032 -13.3244 13.7698
-6.97352 -2.06835 -8.62863
1.6755 -4.23195 -0.6168
-8.74177 -0.526559 9.4267
11.9923 -2.9129 -0.702934
4.61391 -3.48847 -2.53752
-24.132 22.9649 -6.04723
2.42949 5.3235 -0.53974
2.79239 -13.2948 -1.27853
-20.7636 17.3147 -33.0979
-6.11276 8.08113 1.02156
9.15283 -3.15701 4.16499
34.2234 -91.902 17.1227
-1.17068 8.05697 -1.40383
-2.99908 9.26967 -4.99416
-23.8007 77.8791 7.65234
17.3145 -6.18005 -2.51012
6.30555 -13.4258 12.9265
-7.26208 -13.7678 6.71041
-5.71165 11.5475 -6.20371
4.02531 -14.2509 -11.8888
22.8069 5.69695 -2.96772
-0.55598 -4.04504 -2.95592
-4.69765 -1.66836 -4.60481
2.05225 9.18144 38.6164
-3.28514 3.24723 -2.9791
-4.09744 -0.189939 -6.6691
-19.5432 -9.22005 -36.872
0.919932 -3.10945 8.30478
7.49121 3.62115 23.0346
20.0298 -11.648 -37.4532
-6.41368 -0.093694 20.8621
-0.60044 8.1898 -6.78799
-17.131 -14.4292 18.8478
4.49019 0.0794801 -4.68751
12.3562 6.41281 -0.436578
-0.184855 8.76779 0.537686
-12.5772 -0.108828 8.85528
14.088 23.6663 -11.2368
-8.30231 -7.52732 -8.7383
11.0065 -12.9928 0.69415
85.0141 -18.7387 -5.22751
-17.0748 -26.2173 26.9202
-8.11709 0.122279 13.3693
-2.5579 8.72827 -8.1466
-57.2755 41.2806 0.551056
-3.62875 -29.5028 5.3293
24.2996 11.9289 -5.56714
-48.7439 -13.0189 -12.4185
19.5115 5.16244 1.28172
-1.14556 -0.601582 6.48397
36.8807 -12.64 16.7282
-5.73892 10.1292 -4.23019
-5.80065 7.98432 -12.2746
5.12158 0.691548 3.60602
-1.27526 -0.168587 -0.400463
-8.39021 -2.8116 -6.49136
-4.62532 6.82707 -8.35319
6.0432 2.84494 -1.70639
3.53126 -2.61748 5.09913
14.8579 -3.96004 18.8867
-4.05561 0.736031 -3.37532
-6.8164 0.97583 -4.7322
4.23051 2.44888 5.96358
-0.371164 4.99661 7.79166
-3.29424 1.69808 -6.62877
-20.6652 -7.0938 -11.7636
13.0884 -6.52166 1.41488
-0.927719 -7.6835 6.42457
-8.7943 19.7529 6.74611
0.837583 12.1348 9.22139
-1.99767 -5.62692 -6.91756
18.9583 -18.7734 -44.6053
-2.64562 5.40159 2.77039
5.02465 8.3226 6.66207
4.49623 -69.0702 -2.22709
-6.44101 15.1431 1.9702
-1.49655 -4.08857 1.64782
-14.422 45.5276 10.0047
1.33965 -0.895162 9.22489
9.84014 1.9717 -3.09577
7.29214 -8.75254 -29.3555
-8.52103 -2.2285 7.18217
-11.0255 14.1243 1.02977
7.99127 2.94272 -13.4322
-1.37974 -6.28155 4.5384
-7.38031 -7.77083 14.3995
9.68717 -4.17347 38.3119
4.64267 12.3078 2.35667
10.1088 -0.622548 -12.034
-14.4115 -4.46283 -18.352
-1.35644 15.7387 -15.0437
5.10405 8.39024 6.74596
4.84909 -2.36534 -4.09076
-0.820912 -7.29157 11.6917
4.08431 -3.93626 -1.11657
-30.8778 17.7617 -7.14966
6.05295 0.225047 6.48266
5.18299 -10.4596 -3.31
4.32282 -28.9303 18.0291
1.57981 11.5755 -5.13162
-1.40792 -0.517596 -5.94754
5.15291 -0.973086 -0.55871
1.03343 -22.3347 -4.52769
15.0185 30.3967 5.6618
5.34633 -4.56105 4.66863
-2.50132 -3.45725 -6.62364
-20.54 19.2574 25.7443
-9.35796 -17.4307 4.06799
8.30206 -10.7196 -7.98391
2.94743 0.62633 1.6596
8.80454 28.5714 -13.5472
5.61577 -20.4145 -2.05959
3.1944 -10.5141 -1.20851
-21.886 10.4969 2.09449
2.06321 -0.828773 -1.6908
10.2012 1.90125 5.03575
2.17489 -30.7012 15.6772
6.88396 6.37225 7.5491
2.39667 0.971614 16.9623
-7.94587 8.63135 -14.5643
1.87529 -1.22501 -0.775414
21.9597 -0.0759875 26.8871
-15.8988 -6.12049 -11.4467
6.9901 10.1758 -10.7343
1.22612 -2.00798 2.05617
9.22464 37.3341 -41.4267
-3.37835 0.638161 2.43417
-8.13344 -2.97075 -3.81241
3.88498 -11.2957 -1.53762
-3.60431 -0.590644 2.516
-3.22338 0.211506 7.62613
-25.2446 -26.1406 16.7954
-4.46253 2.64781 15.799
-1.22625 9.73033 -5.61312
18.8151 -2.98533 -40.4245
1.37519 9.82811 1.78595
5.60539 18.9222 3.64904
-1.79098 -10.5905 15.4243
-11.0274 17.8407 -7.97542
7.46803 0.0587164 16.0873
2.47529 -7.99154 -7.63704
4.08256 5.28683 3.02247
-24.2531 38.0334 28.6126
-11.8303 -12.2725 11.7578
-15.8752 -10.701 -0.422128
5.81094 12.1807 -12.9762
45.5826 -44.2745 -70.2561
-18.6444 5.42628 18.0545
-6.69952 13.4826 41.4821
18.7346 -16.3913 -27.8267
-2.39623 8.36426 -0.683419
0.760348 5.66918 0.960899
-3.65818 4.39617 -40.8126
6.48525 -2.22482 -3.42876
3.80247 -7.00134 11.3926
4.08523 -13.2916 35.8015
0.955074 -5.35866 3.44429
2.13757 -1.89723 -3.73274
-28.9632 27.0046 -2.61758
1.24898 -4.98187 -4.86798
-0.639826 -4.39055 -2.18011
8.81019 -11.9233 4.06283
-6.21169 8.34464 4.59264
-10.5118 -13.2613 -2.49871
51.8647 27.767 -9.47748
-10.1437 -9.12513 4.24319
-10.153 -9.34564 7.30712
-36.3168 -6.042 5.91232
8.15032 -2.00278 -0.866924
10.6901 -0.347795 -3.09358
12.7261 36.1316 -21.381
-2.28718 -9.67926 4.63298
-4.72962 -5.79326 2.85529
-5.73649 -14.0135 -11.3029
-4.05338 2.12738 0.870075
-1.24057 -5.65232 3.44946
49.6008 1.5742 3.88301
1.06787 5.71932 3.53543
1.74399 1.11169 7.39373
-44.0437 4.28236 2.43745
-2.22608 -2.80333 -3.86957
-4.39679 2.55777 0.923631
8.55107 -2.69646 11.3269
4.03742 1.11858 -4.19301
-1.56925 -2.26122 -4.41584
-1.5953 2.71347 0.639706
-12.2959 2.20056 -7.71983
29.0591 -26.1724 7.01775
-7.00268 3.22366 0.0613585
0.214289 6.5303 3.08377
-6.35617 1.14453 -21.4907
-13.6647 7.78699 -33.2601
-6.82118 -2.321 1.00375
5.43604 -7.18364 5.00251
45.7753 18.676 41.5489
-17.8388 -9.23494 -14.2583
-31.7083 -10.5823 11.9188
-12.3151 16.0446 -4.61917
0.704313 5.63634 3.46057
17.7342 -1.35582 1.59787
23.0929 -19.2711 14.0473
0.597414 7.45556 -6.87925
1.79767 -6.13534 -3.97922
-2.17858 -6.46685 22.4463
-9.34297 11.6855 -2.55328
-4.22906 6.28449 -2.36534
4.37785 -32.4931 -38.8426
1.43946 12.9551 8.65719
2.11459 -1.77237 -0.544055
-10.9011 34.0023 14.653
-1.79829 -1.3963 -3.77723
-5.49296 -5.26104 -2.58925
4.16139 -2.38896 -16.4781
5.29793 -5.83563 5.3406
0.253056 -12.1232 -13.1914
-1.34335 28.1198 39.6012
-9.03241 -15.6818 -4.75627
-1.42655 -5.37993 -2.03528
23.5405 13.967 -1.07393
0.523442 1.5939 1.21375
-6.8842 -7.31467 -0.652762
-24.2507 -33.53 -11.8276
-9.54488 10.845 4.41338
9.64306 11.6967 -5.78111
14.078 -15.2701 -2.39169
2.17646 -5.06389 -4.13557
-3.83123 -9.26326 6.21346
20.1306 20.8152 17.609
4.91544 2.99904 7.63175
-10.9054 -1.04898 -4.55747
-16.2327 -5.65338 -18.2791
-0.706967 -1.39307 -0.308717
4.57925 7.40533 3.52888
33.901 -16.5224 12.3385
-7.60713 -0.171814 4.5378
-7.97065 9.70277 -4.13328
-3.07186 -10.6605 -17.2311
2.63878 -5.56961 -0.589656
4.34614 2.20715 4.6165
-36.7896 55.829 7.52399
0.367132 -8.36622 0.478677
-2.9413 -21.7008 -22.2765
20.0397 2.9614 30.0455
-6.61511 2.03462 -3.36678
-2.24377 -3.44693 -8.45153
20.6719 12.0008 11.1818
1.10837 -2.92697 0.437476
-0.402935 0.34792 -5.9075
-6.7505 4.19604 -31.4135
8.94334 -12.4222 -4.01788
-7.93253 -8.69361 8.49931
-1.69973 4.33811 13.8915
-3.37716 -4.51261 5.73411
-18.8443 3.04408 6.3634
0.304952 -7.47368 -11.0307
10.6401 11.0655 -0.535589
59.6521 6.12154 21.6669
-0.0590582 14.3035 15.6645
-8.31578 -5.31954 -1.86123
-1.89784 -3.1545 -0.865969
-63.7308 -25.0951 6.45611
19.8039 4.26738 -11.1287
-5.73661 17.3582 23.3244
-4.28933 -8.59856 -24.2433
8.13167 3.49018 3.46418
11.1251 -4.46235 9.67973
5.23903 2.25835 15.739
0.439738 -16.3657 -1.10488
14.2477 3.32925 -32.0037
-11.4412 -4.92261 8.7777
-1.37892 4.4258 13.7262
-3.24767 18.7746 -32.7593
-8.14132 -13.1478 17.095
8.55413 3.48742 7.64726
5.3394 -6.23174 3.2844
-23.3596 29.712 7.2923
-3.41522 -11.2679 -2.27517
1.02622 -9.22127 -3.06335
32.1924 -46.5587 31.3932
-7.61696 -3.47035 -8.27127
0.801659 4.83699 -8.74387
-53.2096 37.2646 -24.3326
-3.96029 -2.45 4.28728
16.7463 -3.0777 12.744
10.6442 18.0574 -3.354
-4.15198 -7.66551 1.14775
2.63007 0.768281 -5.13627
10.3196 1.37335 2.14601
3.99254 -5.44681 4.21775
-35.9341 9.10365 14.7443
-8.02348 7.24372 -0.364192
9.31344 -4.55578 -3.13014
49.7105 -19.5108 -69.4749
-6.70796 -2.0018 4.82946
0.662232 5.79527 0.906438
0.434551 -4.38825 5.28955
-10.4113 -0.690032 -15.325
20.3923 -3.61809 30.7639
-20.8203 11.9116 -10.7032
-9.74259 -7.95686 -19.994
-3.45966 11.7037 11.2823
5.94425 -7.59572 6.53928
20.9612 34.6559 -2.05124
1.13907 -12.2244 4.30227
-9.67333 -1.65916 3.22646
-17.0121 1.68566 7.57948
-4.29565 -3.59407 -1.45228
8.26035 -6.98428 13.9254
4.68392 -16.2484 -43.7563
4.51146 0.523582 8.64955
5.77988 -0.570459 2.313
-26.7254 20.0021 22.1806
1.77416 -7.92187 -8.81291
-2.35508 1.14599 -9.66434
18.042 19.0413 2.66133
-1.59673 -9.1224 -0.946905
4.43501 -4.32171 -10.0415
7.53741 -49.0713 -28.1335
-5.8264 10.5768 6.38388
-4.24466 4.1424 3.75318
23.1383 -20.7819 13.6731
0.980662 -1.49946 0.572362
-6.33903 -3.92237 -0.176645
4.57866 47.0606 -39.2625
-21.2901 13.9328 13.7843
1.819 -5.00962 18.7785
-16.5524 0.0210223 -1.23619
-4.69265 -0.541314 5.41085
0.22997 -1.06121 2.68981
-18.7247 -18.0491 -28.6515
8.10366 1.48609 7.64591
11.8555 -10.6842 -5.41224
-13.2966 6.07374 38.8218
13.2091 3.03579 -2.0167
0.244099 -6.18452 -4.11035
14.9573 12.5037 7.55589
-10.1338 5.05249 15.4271
16.834 -22.1903 -8.82514
1.34698 4.29196 6.09097
-2.79363 10.2557 -0.750922
3.8684 58.534 -5.9038
8.10937 -10.5579 -10.5566
-7.41489 -3.32148 2.97629
-3.42042 -12.8984 -4.14197
4.20646 -22.7391 -5.11943
3.23797 3.70929 7.70474
-22.9004 0.979677 6.16911
0.448494 24.4655 14.9705
0.630494 -6.48308 -5.70107
3.78464 -1.15055 4.73729
-12.8082 -45.7984 -7.42769
-4.65749 3.20561 -13.4325
19.9682 33.7469 -10.3678
3.51493 5.2518 6.92738
4.74314 -3.05366 -0.300048
-31.4745 -16.4884 15.1943
2.70668 10.3352 -13.3069
-4.44097 -3.58694 5.04069
11.0497 -4.14275 4.73559
-6.92967 0.55164 19.6667
17.8703 -3.54541 -8.04554
6.15882 13.7301 0.183463
-21.5726 -0.150643 -13.347
6.19248 9.73907 0.0818707
7.14266 -4.92536 10.0282
-8.25228 -5.28357 -3.66795
1.73536 1.14744 -5.62473
8.78272 2.59776 -8.3183
-0.432807 -14.1655 16.032
6.8511 1.43624 -3.45047
0.079803 -2.743 -5.84057
-3.02454 8.49156 -2.21631
-2.8323 9.54035 3.21735
7.50457 -18.1434 -14.2151
-6.22743 2.9609 6.80593
-0.951932 -0.185857 -4.86354
1.72519 0.267508 -44.6903
29.912 53.9679 19.436
-15.6585 5.45009 4.38063
3.14628 -27.7991 -5.5805
-2.94277 36.6975 19.5334
-6.95787 -14.7319 1.68553
-9.60993 -17.9588 28.8258
-2.71461 -29.1061 -9.58436
-4.25411 -3.64274 0.783618
1.57243 13.354 3.17302
9.30174 10.6644 -4.9879
1.78892 5.53342 -0.84026
-5.32362 8.62293 16.5919
6.04481 13.5387 -6.76095
-3.88488 -1.8929 -7.66707
2.31491 -15.852 -11.2059
-5.52317 9.25405 9.12244
8.36718 3.73809 -3.83992
1.9452 -4.90979 -4.17607
6.81091 6.27885 22.1809
3.62438 2.75673 -2.31016
-0.67618 6.29684 -7.14674
-5.21274 7.18215 4.52133
-2.01984 -11.6857 -13.5967
2.2807 2.51148 -2.7244
5.20408 12.0458 31.7076
-5.05059 -4.38995 -5.12468
1.31153 -2.10892 -6.53796
-4.94665 -10.6254 -1.40269
-6.3171 0.422082 -5.52724
8.91126 -3.72304 4.93699
7.09943 -2.70265 -8.52423
1.01951 -1.03566 -3.72845
-19.036 18.9709 -32.2355
5.2163 -5.1446 1.52211
6.89167 -3.74926 7.32029
25.1851 -39.6196 -1.64322
-17.8209 -11.574 35.2385
14.8551 -13.3429 1.75331
-1.27929 -10.1347 2.71529
9.23831 33.2614 -0.605138
11.2328 4.16299 5.05604
-10.8162 -21.0121 -2.17671
-29.8812 -18.1135 -43.0687
14.766 0.878507 17.1979
1.42019 6.72119 16.6508
0.699396 -0.851445 10.5551
7.39271 -5.49891 0.409946
10.3126 32.1446 -8.73562
-1.74915 -3.15524 3.47181
-8.88589 -1.98073 0.747758
-2.81022 -7.20207 -8.88916
-3.86966 -2.63207 -1.35744
-7.14141 9.63215 -1.92933
4.27829 -6.80433 2.39261
-12.9566 3.37864 9.21786
13.131 -2.18763 -0.0193183
8.30206 -9.63702 1.27425
15.3929 6.42878 3.17008
-10.8225 7.61002 -2.08932
9.37213 -12.1853 -0.0763511
6.91375 -9.18271 3.32496
3.60063 -7.66466 -10.9761
-0.341887 3.82771 -8.05765
-31.0068 39.3771 10.8684
-0.595036 -14.4246 -4.05426
10.0665 -5.22475 8.00114
3.79155 -1.08527 0.282528
5.50068 -1.67602 -1.22242
-1.56921 15.7494 2.33782
-1.60667 -9.19156 -0.76566
-6.60283 -9.14407 -4.35415
-20.0297 -13.1037 -41.9666
7.48313 0.323869 5.47216
-10.7122 2.00657 2.41285
1.3769 2.22456 -7.24059
-6.92892 4.57796 24.8789
12.2186 5.22568 -4.84379
-16.6951 6.15812 31.0731
13.3158 1.97265 -20.8556
0.429024 -4.49728 -3.58593
3.17739 1.25539 7.23575
7.19408 11.3015 18.1194
-5.96348 3.14286 -2.32441
-3.91979 -2.95107 1.4692
-36.0428 -21.391 7.13859
5.79245 8.29004 -5.01117
3.20756 -3.00371 2.91099
36.5966 -10.5825 -26.7859
-0.654006 -5.91529 4.981
-5.81211 1.0568 2.35206
-0.363561 24.0715 17.9029
-5.7173 3.45769 -0.306027
-1.42305 2.79555 1.30749
12.2734 -19.9462 -29.7806
-5.34359 -0.0279341 2.5993
1.55921 5.69892 -0.0479849
-4.7222 5.14284 21.5038
-2.46824 0.0628676 -3.72942
2.828 4.31392 -3.63018
23.5709 -3.71582 24.1182
2.67962 -11.2661 -12.1566
-8.00233 -8.62616 3.46393
-8.45095 7.44554 -3.97816
-6.89941 -2.45217 -8.57344
4.37334 -6.49101 -0.0616465
-9.10462 -4.23966 -2.21301
-4.13198 6.6407 -6.57335
4.16582 1.09415 -3.18868
-3.203 58.225 51.4873
-4.44216 -3.9536 -7.14192
2.9126 -10.6547 -6.79327
4.41383 -32.393 -20.7333
-6.95096 -0.0455545 -7.33663
2.36634 5.35542 3.35069
3.85134 -7.26149 -4.99097
-2.02328 -3.31493 5.39784
9.77994 2.19556 -0.945709
-3.2422 12.0581 8.20889
-0.665609 -6.41577 3.38714
-9.13632 46.4139 -55.0978
31.1272 -31.3627 7.5394
4.21748 -4.07088 3.24182
-10.7068 0.431911 -14.4127
26.0018 -19.6269 27.5171
-23.6195 8.53604 -12.598
-27.7128 3.28053 22.776
27.9662 13.3345 -4.32991
-1.97284 -6.18578 -2.60474
-0.442474 0.301358 1.89886
-11.041 -15.1296 1.5941
-1.71367 -0.919905 7.57119
-1.25535 -0.74332 -4.93684
-4.10481 12.3879 -58.097
3.57706 -5.7394 13.6356
0.913375 6.1498 1.20907
1.89261 -8.37204 9.30855
-2.99618 1.85307 5.90005
9.75293 6.13441 12.43
-2.05256 1.41316 47.2657
16.6545 6.15211 1.8933
-1.07089 -6.53853 -2.07753
22.0105 22.4772 -35.2112
-18.8082 -11.479 -5.07476
-0.960212 -1.86168 12.0135
-18.0849 13.5561 -31.9475
-4.79437 6.04374 4.52666
7.13329 -6.29127 17.3039
-32.4365 -33.351 -0.779925
-1.96064 0.0335085 -13.0597
12.1319 0.0659515 4.03016
0.550768 -5.04633 0.0367239
-3.82015 -6.59237 -19.5025
11.114 -4.34446 3.98915
0.309233 32.5289 10.877
11.6668 -8.78864 -0.244644
6.74266 -6.27069 6.9323
-23.6361 19.9964 -4.14442
5.87104 5.2575 7.59018
1.44171 -1.99068 2.14209
9.27744 11.6691 0.18891
1.43318 -11.1588 -1.97353
0.00845158 -6.64464 2.91916
-33.6017 -4.68431 -4.87215
5.41946 -3.72327 -2.63347
-0.110215 9.64296 3.58309
23.2159 8.34076 19.9135
1.38139 -9.17241 -2.66012
4.4917 6.18061 -3.0894
-11.0926 -15.9218 -5.86824
1.95737 6.00184 -14.203
10.4792 -0.838542 7.45785
9.6666 -5.12375 -13.7053
-10.0193 3.49576 3.54419
2.06665 -0.743155 -3.84531
14.7184 -18.9019 10.7654
-5.44034 5.61409 9.50373
-16.0744 6.21546 0.606232
10.2466 12.2939 -5.51647
9.62019 -6.64677 -3.03001
-15.657 -6.50742 1.83971
-0.67377 8.26239 -2.19305
3.47781 9.80497 0.849413
-26.7955 -34.5035 -11.2917
-3.9656 3.02891 -1.78112
7.00661 4.23992 7.11215
-16.0327 14.3543 -18.7459
34.4704 -3.14276 58.3171
-3.09892 -2.01963 -10.8217
-0.713115 -2.93579 -3.31301
59.4743 14.8604 24.7199
-14.7578 -27.929 -28.0975
-31.3356 -1.84495 -8.6445
20.8844 2.40702 29.4002
-6.17287 -14.7114 -8.21662
-1.77611 -0.0599265 0.861032
-20.2191 22.9003 -43.1881
-6.57424 -4.75814 18.1017
-15.227 -5.69245 48.6134
-4.08972 -5.46414 -6.3214
-5.48824 -1.60291 -0.365811
-6.30716 -12.6494 -19.9352
3.32035 -2.28994 -6.73504
3.64857 1.09638 7.76082
7.44216 0.536188 0.52201
47.9166 44.1274 -15.0293
-0.626314 2.31901 3.4894
5.50936 -11.4294 -1.14244
-35.6027 -16.6582 8.35259
-2.52403 4.13166 3.50818
3.19575 1.85321 -4.07974
32.255 -1.8863 -16.5356
-1.19453 6.3517 1.49572
5.21333 2.65298 -0.25251
-24.4734 4.08363 12.4714
1.00515 1.27646 1.51232
3.92417 3.45945 -1.52468
1.19091 -11.7938 7.1024
-9.75485 -13.6581 -3.71887
8.13586 6.38731 -24.7488
-2.26075 -3.74294 0.576955
5.6185 -7.35168 10.4383
16.4171 30.7245 7.98208
-15.27 2.18265 -48.0257
-2.55554 -8.45176 8.12081
-0.536471 -16.1962 12.0396
25.5825 0.198701 22.3979
-13.7369 -6.82131 -12.1046
-27.7759 14.7691 18.1284
-15.9881 14.1669 -4.67122
2.96274 -2.51401 -7.24326
-8.35479 -15.5552 -4.81607
22.1945 -5.51403 -17.0762
6.132 -8.6695 -12.7382
-25.2478 16.0064 4.51329
2.00662 -5.00663 -0.498699
-10.6123 -1.73163 2.50224
-16.8873 -9.11752 -6.19707
14.0468 4.09963 -0.568795
8.085 -9.0619 6.64596
-1.179 2.28979 1.76079
-16.4445 7.8228 36.3564
12.9214 -4.3141 2.38757
3.71065 2.25204 4.5183
5.46666 18.055 -9.50733
-7.70072 -3.07368 17.8362
-5.96699 -14.5153 -19.7958
21.6473 6.64181 37.6727
0.874226 -5.70964 -7.64357
-0.432767 5.10998 -1.90241
-3.76901 3.79615 -19.9499
3.11537 -2.08644 -1.45516
-1.19597 0.118796 -3.43458
5.85341 -1.97026 2.6385
8.71658 14.7135 -1.993
-4.76009 -32.2638 -10.0484
4.77565 -2.5526 3.73951
2.45663 12.9892 -4.16942
-2.41085 51.8715 38.741
-50.152 -12.5074 -23.7938
14.6529 -12.9145 4.94927
-12.9314 -22.1364 0.00434058
18.8619 -26.5944 -15.4702
0.286565 17.0689 -0.195522
-7.16562 -0.622212 6.717
21.0483 -0.035626 19.7899
-0.815491 11.9333 3.56577
-2.98333 4.94955 2.83848
-18.1039 5.4938 -10.0422
2.22878 3.88789 -2.427
3.9938 -8.57083 14.9656
-15.9354 -26.1756 -31.1701
-6.85158 4.99732 4.30216
0.388374 -3.83254 -5.82771
49.1217 5.56447 32.2675
-2.18855 -2.72802 -0.0401127
0.730764 -3.43478 -6.00269
-36.0167 24.5899 -20.0355
17.7658 4.58878 -4.86864
5.58799 1.19058 -2.16844
-12.5177 16.5592 29.8213
-10.0594 -7.34646 -7.81525
0.347321 -11.3736 3.7967
29.4994 -21.2988 -23.5107
-9.93317 -5.86591 7.74217
-3.33671 -3.30567 11.6659
-0.180502 20.9118 -14.2968
-0.0111589 -2.24794 -5.56527
-3.03022 -2.81672 2.51622
-2.75386 -17.0614 35.6115
3.26061 1.82411 -6.31107
3.9602 5.41861 -2.13895
3.00428 4.05725 -17.388
-0.757674 2.28977 2.34509
-11.4331 4.93257 2.52098
-19.6974 -4.82825 -14.5984
1.29431 2.73427 13.8991
13.5307 -2.67269 1.38722
15.3129 -0.676564 -6.1853
-4.14192 2.88543 -2.76716
0.654703 4.56038 1.85254
-0.137435 -1.69728 0.87012
4.89247 -3.08973 3.34653
-46.5808 5.61764 -8.19417
-3.30896 -2.51631 14.3667
-1.0225 5.69805 5.27301
49.6019 -12.0401 -14.8384
1.64181 13.7775 -2.29224
3.27879 -9.72625 -1.31336
3.64745 9.32793 -0.16501
-7.86046 6.10377 10.0673
10.5282 -9.03665 -22.5536
1.17329 26.762 -6.61911
28.3608 -4.47789 -3.32629
6.74621 -4.97699 -3.08528
-4.32918 2.59515 -2.03615
-19.5467 16.7859 -9.13251
-2.7647 4.12342 0.425602
17.6791 -14.3438 35.3366
-6.07533 0.85647 -15.9948
-1.66384 7.11378 2.50795
-4.68188 19.7832 -8.40107
-0.344368 3.46367 -2.21627
4.83845 -14.0345 5.41515
-5.0415 -2.90335 -6.50343
-0.278122 -24.6325 -6.41896
-0.838011 -9.17212 -0.914631
-3.89113 7.02661 4.55182
-4.0712 -1.28109 24.2734
-2.38417 4.81087 -11.1185
4.77851 -0.650636 -1.57476
9.65353 12.7811 12.6956
-6.72509 0.634967 1.41661
1.80609 3.28005 3.23148
1.36165 -7.66554 -21.4179
-6.56863 4.46496 1.79014
2.09044 9.93546 10.6687
0.643099 -5.1819 -4.97174
-2.16632 4.48577 -13.9725
19.4571 14.2908 -1.75123
1.11434 0.753314 1.32508
-6.64985 -6.65338 15.1861
20.0195 -3.38204 21.5277
14.3416 21.0731 -8.25071
4.34077 -11.1145 11.3407
-19.7061 -20.6967 14.3142
-31.2793 -5.72726 -16.0567
2.18747 3.65252 7.68378
8.89118 12.9283 20.5062
9.25777 -34.638 -21.696
-8.90042 -11.8064 2.54974
-14.736 2.69181 -6.78776
10.2656 16.8737 10.823
-4.11897 3.07593 -2.57355
0.635252 -0.850237 5.36523
-13.0301 11.6647 -15.1013
-1.06018 -0.311253 2.61854
-6.69492 -7.2889 11.7677
3.81761 10.2129 -14.139
1.36022 0.860396 10.3633
5.16401 -2.54697 2.58765
0.708311 0.688592 14.3222
-6.19275 -4.50663 -8.10091
-8.72989 3.33441 -2.45082
10.3003 -2.31051 -17.6933
-1.57461 3.23013 20.104
0.627833 -2.91788 -0.904785
-13.1496 -16.8817 -12.6322
-10.0365 6.70587 6.21238
-2.54145 5.96615 -7.7744
27.1155 -17.2908 -12.3411
3.43902 1.43176 3.39991
1.94552 6.85495 15.0996
19.5407 -0.476932 -25.4935
-6.08447 0.239232 10.8685
3.23924 -4.04797 4.28061
-29.903 13.1195 -26.1844
4.98414 -1.46973 -0.205271
-0.050882 -1.97379 11.5327
13.8927 -20.1412 39.3978
5.63669 -15.7184 -4.48737
-4.98665 7.2303 -8.87965
-25.7282 25.1643 2.3512
4.10789 7.2786 -9.03776
-2.0178 -2.85222 5.41991
13.3685 -2.43375 -1.42187
11.2338 -12.1656 6.63737
5.39322 -0.139158 -35.5857
-3.51635 7.86523 -2.74065
-1.39445 5.12806 -0.818799
47.2355 -10.6297 3.16156
-24.636 39.0461 26.29
-12.2085 -9.54429 -20.0875
1.94204 -14.7433 -10.2815
-38.3384 -27.6774 -9.8089
9.22914 40.0986 9.19935
9.86517 -20.3165 -19.1974
11.4323 43.3088 17.2728
-22.4759 -4.78302 -9.73592
-5.36657 3.53555 8.82881
5.64634 -40.0425 1.18559
-8.41808 16.4722 2.29244
-17.7914 0.541284 -18.4448
44.2923 7.25565 23.6676
-8.78682 6.06105 8.94714
-4.68717 3.59985 -4.54886
-7.53914 17.2867 -11.9888
3.06384 -13.7575 8.56022
-4.29527 -1.37309 7.07621
27.8503 10.781 16.735
-1.06876 -7.45464 -3.59292
-6.87289 -5.80366 -6.56646
-9.76389 -40.1626 -29.8326
8.76882 -0.478312 5.53838
0.753516 4.66911 -5.64733
-13.1097 0.704892 11.7672
-10.8725 14.5557 19.5839
7.20125 -1.29814 -13.3403
7.05081 12.4967 -19.7541
0.521561 2.7977 8.39509
-8.96521 -8.95276 -2.93236
18.6815 20.2618 33.828
-6.08517 -2.83624 -4.94926
1.90021 -1.50985 -10.6255
1.95397 0.806794 -28.9462
-11.5336 4.64771 4.09647
-6.57886 -3.69239 -4.40971
-16.3497 -24.0229 40.3149
12.7368 3.25441 -4.36198
1.89306 1.49302 3.77279
19.9278 13.0823 -36.4996
-6.04703 -2.61717 -0.0831125
-1.81525 4.58386 4.01774
-3.13351 -4.41429 8.30168
-12.2858 -19.9338 12.4575
22.8552 -16.0684 6.43073
-5.54239 8.96789 -2.0472
-23.5235 11.2898 5.82875
54.7739 -20.2612 -24.5607
-23.0536 27.641 -14.654
13.9582 15.8308 6.56638
-3.54289 7.64059 -4.93574
-36.2297 -9.70568 30.5301
7.54163 -3.45145 -6.7901
25.4552 -3.96407 -15.2607
-6.12439 5.6334 12.5119
-6.35557 -5.14848 4.13599
0.185858 10.0254 -3.13325
-8.35695 -2.32266 -6.60325
3.59025 9.08415 0.296042
-1.36607 -24.7383 4.04433
13.3825 18.8997 -4.70317
-1.37789 -4.03641 -14.8927
-18.26 -6.84252 9.17851
4.15905 12.9989 -0.999984
8.33239 -1.9895 1.4267
1.49576 0.963163 2.09866
3.1001 -4.87369 5.25942
2.4774 5.08695 -3.08484
3.51725 0.136789 -7.33788
8.33412 -7.5741 -14.1615
-0.859884 1.61456 8.04613
-9.3647 -3.53162 7.29355
-1.46061 18.0004 -3.19147
1.0577 -2.21549 5.56713
-5.98633 -2.57156 6.71889
-2.10704 -0.494351 -6.01192
-3.33721 -7.1936 3.18806
-1.0417 0.94342 6.60311
2.81885 -0.694641 0.666376
23.9922 -3.86471 6.66192
-1.17102 4.56358 -6.76153
-3.79685 8.46538 -0.991253
-1.97833 -20.075 -10.8028
-67.1402 47.4044 72.2264
13.6339 -46.2502 -12.1113
10.0902 -5.49794 1.29449
-3.69655 -14.5835 -6.0861
78.2568 -14.0627 -2.15506
-25.7214 30.5616 -8.22762
-18.0542 -4.21043 21.1283
-1.72822 6.43598 -16.7894
-5.62734 -12.517 6.75975
7.76617 3.82513 -2.91201
-1.32614 10.3603 27.1708
1.85843 2.12201 -6.03708
-4.16661 -10.0726 -7.02144
-2.75423 18.0617 -16.0628
0.820851 2.23077 2.93467
-2.03825 -2.72379 6.41455
25.6184 -43.8466 -16.273
0.438799 -7.25488 6.67314
-2.24919 6.32874 0.866341
-33.1349 37.9544 10.3024
-6.78715 -11.3834 7.30998
4.52875 -2.54835 -10.181
46.2829 19.6523 -16.7945
-13.9275 -8.75532 4.63773
-1.03194 -1.47471 2.62972
12.279 -18.0704 -23.0254
-7.73752 2.79108 4.44274
-12.6536 -2.60699 0.7894
1.54838 12.4021 45.3782
2.87766 1.89553 -6.14076
-0.963523 -0.994275 -8.97123
-21.1499 -34.2302 -7.04105
7.04048 8.2711 -9.95161
9.38545 6.46389 1.89719
-8.24828 6.39665 26.8393
11.5529 2.93962 -11.2366
5.47922 -1.51418 -2.30245
-17.1877 -21.1552 -1.26963
-1.6833 10.6676 0.689154
9.32411 14.8114 -5.71585
22.7974 -42.3096 -28.6934
-7.51977 6.70239 -0.0583292
4.28199 3.51594 1.86744
6.39629 10.7259 43.7366
-10.0527 13.8526 -14.3599
3.18739 13.43 -7.56437
-25.2434 3.26499 -9.695
3.72568 11.6712 -11.1232
19.0305 -2.32933 14.5261
-13.0746 8.68611 -17.7788
-6.76824 -6.13186 8.81122
-2.39277 -2.83597 -2.34619
-4.10849 -42.2759 7.87245
-0.786898 0.108218 4.09803
5.20392 2.65452 3.57094
-8.94893 29.5909 -1.81409
5.14248 4.4045 -3.13018
-4.73996 -8.01869 9.17334
24.7863 8.12403 7.11145
-2.39008 -8.1615 -8.30103
0.539911 -6.06186 -8.01126
-5.05667 3.02639 3.82421
6.51365 5.86306 -4.88638
-3.6087 13.1687 24.2899
-5.21799 -11.124 4.64087
-11.5667 8.04433 -5.99733
-0.872475 -24.6731 16.7565
-1.41437 -42.2403 -65.5452
-3.16481 -12.0383 -47.2261
-4.19956 5.03712 -5.89116
3.95404 77.3303 5.73033
-5.94302 -10.9498 5.55522
6.39132 -11.7744 -0.287238
-17.9004 -24.4673 5.80668
-8.2587 -4.00073 -6.33253
2.9363 11.4334 0.239972
21.6949 -19.6228 -18.6307
-1.9464 3.31455 7.25346
-13.6148 -1.25898 0.925111
7.37977 34.7753 13.1802
-4.89589 3.7302 5.11356
-13.4484 6.4629 -3.57675
23.8378 -6.0855 10.3509
-1.16425 -3.67828 -10.0151
-3.88804 0.415683 -6.08595
-22.9345 -48.4837 -0.546276
0.974683 -5.78101 2.35709
0.804443 12.7672 1.28557
10.5318 21.5837 1.61231
-4.18814 -7.76967 7.94687
-0.935951 1.41355 -6.22335
-27.9321 10.1263 5.04502
10.341 2.92632 -18.48
22.1629 5.67201 1.13037
11.2891 4.35096 -1.80013
-17.2877 -5.33796 1.90397
-6.89451 -3.24743 0.717322
-20.3442 6.17357 -0.131843
-3.12059 4.78903 -1.10531
13.6714 3.96859 2.70548
16.8601 -36.9244 -2.92097
2.39222 13.0289 3.0669
-7.25068 3.72722 4.77932
3.17202 30.4852 6.37756
18.4756 -1.33355 -16.928
-6.64111 -6.60106 -1.47759
-15.9336 13.6995 4.6971
-0.17372 0.626212 -7.95086
4.96426 0.352224 3.52225
2.6546 -18.3346 6.50492
-6.86031 -1.9771 -1.24423
18.3323 44.2208 24.3584
0.595054 -1.70518 -10.3373
-1.66452 -1.42852 -3.50874
-32.2556 6.51109 56.9367
9.7036 10.5508 9.74773
-3.46314 2.61667 4.54803
-4.22449 -17.4137 -5.2964
44.7269 -21.8361 -22.9884
-7.47404 19.6152 2.7431
59.555 -15.1471 -11.9249
-27.4528 4.29955 -0.933156
1.92631 2.40361 -2.88301
-12.3445 -13.8507 0.935133
12.9027 24.9585 29.0754
-5.51592 -9.52404 -6.41663
-7.81928 0.947215 2.02731
-12.3626 -4.55702 -5.31671
2.77666 -6.66703 7.23328
-0.537412 -3.18268 -3.64087
16.0867 0.949268 1.07546
5.67306 3.5986 -6.66993
-3.07458 1.26823 -0.972974
2.3774 0.110151 -13.7886
3.01836 4.33827 -5.89667
-7.38038 0.994121 14.7006
-16.0209 -4.57749 2.99686
-2.6597 4.3106 1.50571
-3.87737 0.0710606 2.57486
0.819355 -1.4556 5.34409
-0.266443 3.95048 -2.78208
4.56296 -3.86552 -7.44585
-5.22737 2.73502 8.80332
-2.37502 -6.26559 -5.58523
8.7346 7.5892 -7.98441
-7.60321 -2.24416 21.9136
10.3362 -4.42042 -0.473344
1.9549 5.65863 -14.0127
-5.52592 5.95346 1.18104
-3.04676 -3.75972 -0.214749
0.73561 5.74299 0.329499
23.9576 36.1257 0.987953
-7.30199 -21.1173 -4.67111
5.5556 -13.2105 0.0525003
-23.461 3.75519 9.19004
7.08684 -1.15129 -1.29403
-3.28649 -6.9027 -2.55439
7.52665 3.49377 -10.4698
-6.36461 0.336541 -1.68408
3.27622 -3.21205 5.09432
0.175509 10.2 11.4496
5.97725 8.51349 -9.7148
-14.2763 -10.0843 -3.14843
13.714 -35.6087 -0.149164
5.26516 -4.81699 0.994863
4.20625 0.532174 -1.40964
-8.4124 6.06447 -12.161
-11.2002 0.810987 -5.76676
-7.34542 5.42315 6.0098
-12.675 5.32143 17.3025
9.34654 -0.764744 -2.44163
4.5756 -1.50253 3.85982
19.3117 11.4194 7.98773
1.40239 -0.117198 0.840598
-13.8369 -2.77402 -5.69363
6.74917 2.80346 -5.97513
-20.4884 10.6667 -31.7834
14.4829 -10.8282 4.80045
-8.06479 -1.33233 11.9722
4.7151 -5.28255 9.61851
